$*$$$$$$$$$$$$$$$$$$$$$$$$$$$$$$$$$$$$$$$$$$$$$$$$$$$$$$$$$$$$$$$$$
$*
$*                    NX v8.5.0.23 TRANSLATOR
$*                    FOR NX NASTRAN VERSION 8.5
$*
$*             FEM FILE: C:\Users\100398864\Documents\UOIT\Concurrent Engineering Design\Lab\LAB4\Disc A_fem4.fem
$*             SIM FILE: C:\Users\100398864\Documents\UOIT\Concurrent Engineering Design\Lab\LAB4\Disc A_sim4.sim
$*        ANALYSIS TYPE: Structural
$*        SOLUTION NAME: Solution 2
$*        SOLUTION TYPE: SOL 101 Linear Statics - Global Constraints
$*
$*    SOLVER INPUT FILE: disc_a_sim4-solution_2.dat
$*        CREATION DATE: 30-Oct-2013
$*        CREATION TIME: 12:17:54
$*             HOSTNAME: UOSL13-R9ZGTMY
$*      NASTRAN LICENSE: Desktop Bundle
$*
$*                UNITS: mm (milli-newton)
$*                      ... LENGTH : mm
$*                      ... TIME   : sec
$*                      ... MASS   : kilogram (kg)
$*                      ... TEMPERATURE : deg Celsius
$*                      ... FORCE  : milli-newton
$*                      ... THERMAL ENERGY : mN-mm (micro-joule)
$*
$* IMPORTANT NOTE:
$*     This banner was generated by NX and altering this information
$*     may compromise the NX post processing of results.
$*
$*$$$$$$$$$$$$$$$$$$$$$$$$$$$$$$$$$$$$$$$$$$$$$$$$$$$$$$$$$$$$$$$$$
$*
$*$$$$$$$$$$$$$$$$$$$$$$$$$$$$$$$$$$$
$*
$* FILE MANAGEMENT
$*
$*$$$$$$$$$$$$$$$$$$$$$$$$$$$$$$$$$$$
$*
$*
$*$$$$$$$$$$$$$$$$$$$$$$$$$$$$$$$$$$$
$*
$* EXECUTIVE CONTROL
$*
$*$$$$$$$$$$$$$$$$$$$$$$$$$$$$$$$$$$$
$*
ID,NASTRAN,disc_a_sim4-solution_2
SOL 101
CEND
$*
$*$$$$$$$$$$$$$$$$$$$$$$$$$$$$$$$$$$$
$*
$* CASE CONTROL
$*
$*$$$$$$$$$$$$$$$$$$$$$$$$$$$$$$$$$$$
$*
ECHO = NONE
SPC = 1
OUTPUT
DISPLACEMENT(PLOT,REAL) = ALL
SPCFORCES(PLOT,REAL) = ALL
STRESS(PLOT,REAL,VONMISES,CENTER) = ALL
$*  NX Step: Subcase - Static Loads 1
SUBCASE 1
LABEL = Subcase - Static Loads 1
LOAD = 2
$*
$*$$$$$$$$$$$$$$$$$$$$$$$$$$$$$$$$$$$
$*
$* BULK DATA
$*
$*$$$$$$$$$$$$$$$$$$$$$$$$$$$$$$$$$$$
$*
BEGIN BULK
$*
$* PARAM CARDS
$*
PARAM      K6ROT100.0000
PARAM    OMACHPR     YES
PARAM       POST      -2
PARAM    POSTEXT     YES
PARAM    UNITSYS   MN-MM
$*
$* GRID CARDS
$*
GRID*               8173               08.7500000000E+010.0000000000E+00+
*       0.0000000000E+00               0
GRID*               8174               08.7500000000E+010.0000000000E+00+
*       2.0000000000E+01               0
GRID*               8175               01.5000000000E+010.0000000000E+00+
*       -1.000000000E+01               0
GRID*               8176               01.5000000000E+010.0000000000E+00+
*       3.0000000000E+01               0
GRID*               7381               08.6929644942E+019.9742928282E+00+
*       0.0000000000E+00               0
GRID*               7382               08.5226015171E+011.9818553009E+01+
*       0.0000000000E+00               0
GRID*               7383               08.2411321826E+012.9404443852E+01+
*       0.0000000000E+00               0
GRID*               7384               07.8522264341E+013.8606998832E+01+
*       0.0000000000E+00               0
GRID*               7385               07.3609538346E+014.7306246012E+01+
*       0.0000000000E+00               0
GRID*               7386               06.7737196351E+015.5388780982E+01+
*       0.0000000000E+00               0
GRID*               7387               06.0981790963E+016.2749233293E+01+
*       0.0000000000E+00               0
GRID*               7388               05.3431386935E+016.9291646148E+01+
*       0.0000000000E+00               0
GRID*               7389               04.5184418631E+017.4930731599E+01+
*       0.0000000000E+00               0
GRID*               7390               03.6348395817E+017.9592971276E+01+
*       0.0000000000E+00               0
GRID*               7391               02.7038511744E+018.3217588579E+01+
*       0.0000000000E+00               0
GRID*               7392               01.7376134832E+018.5757328035E+01+
*       0.0000000000E+00               0
GRID*               7393               07.4872299019E+008.7179078787E+01+
*       0.0000000000E+00               0
GRID*               7394               0-2.496806437E+008.7464372667E+01+
*       0.0000000000E+00               0
GRID*               7395               0-1.245076243E+018.6609632718E+01+
*       0.0000000000E+00               0
GRID*               7396               0-2.224240014E+018.4625787428E+01+
*       0.0000000000E+00               0
GRID*               7397               0-3.174407064E+018.1538708524E+01+
*       0.0000000000E+00               0
GRID*               7398               0-4.083190489E+017.7388641788E+01+
*       0.0000000000E+00               0
GRID*               7399               0-4.938742784E+017.2229688502E+01+
*       0.0000000000E+00               0
GRID*               7400               0-5.729910185E+016.6129099956E+01+
*       0.0000000000E+00               0
GRID*               7401               0-6.446379049E+015.9166413312E+01+
*       0.0000000000E+00               0
GRID*               7402               0-7.078808969E+015.1432397345E+01+
*       0.0000000000E+00               0
GRID*               7403               0-7.618954944E+014.3027874464E+01+
*       0.0000000000E+00               0
GRID*               7404               0-8.059775695E+013.4062413537E+01+
*       0.0000000000E+00               0
GRID*               7405               0-8.395524628E+012.4652893782E+01+
*       0.0000000000E+00               0
GRID*               7406               0-8.621823129E+011.4921978945E+01+
*       0.0000000000E+00               0
GRID*               7407               0-8.735722228E+014.9965309375E+00+
*       0.0000000000E+00               0
GRID*               7408               0-8.735736382E+01-4.994055833E+00+
*       0.0000000000E+00               0
GRID*               7409               0-8.621865406E+01-1.491953611E+01+
*       0.0000000000E+00               0
GRID*               7410               0-8.395594476E+01-2.465051507E+01+
*       0.0000000000E+00               0
GRID*               7411               0-8.059872203E+01-3.406012995E+01+
*       0.0000000000E+00               0
GRID*               7412               0-7.619076854E+01-4.302571577E+01+
*       0.0000000000E+00               0
GRID*               7413               0-7.078954691E+01-5.143039168E+01+
*       0.0000000000E+00               0
GRID*               7414               0-6.446546684E+01-5.916458683E+01+
*       0.0000000000E+00               0
GRID*               7415               0-5.730097547E+01-6.612747646E+01+
*       0.0000000000E+00               0
GRID*               7416               0-4.938947430E+01-7.222828916E+01+
*       0.0000000000E+00               0
GRID*               7417               0-4.083409753E+01-7.738748484E+01+
*       0.0000000000E+00               0
GRID*               7418               0-3.174638086E+01-8.153780906E+01+
*       0.0000000000E+00               0
GRID*               7419               0-2.224479784E+01-8.462515718E+01+
*       0.0000000000E+00               0
GRID*               7420               0-1.245321634E+01-8.660927990E+01+
*       0.0000000000E+00               0
GRID*               7421               0-2.499284574E+00-8.746430189E+01+
*       0.0000000000E+00               0
GRID*               7422               07.4872299019E+00-8.717907879E+01+
*       0.0000000000E+00               0
GRID*               7423               01.7376134832E+01-8.575732803E+01+
*       0.0000000000E+00               0
GRID*               7424               02.7038511744E+01-8.321758858E+01+
*       0.0000000000E+00               0
GRID*               7425               03.6348395817E+01-7.959297128E+01+
*       0.0000000000E+00               0
GRID*               7426               04.5184418631E+01-7.493073160E+01+
*       0.0000000000E+00               0
GRID*               7427               05.3431386935E+01-6.929164615E+01+
*       0.0000000000E+00               0
GRID*               7428               06.0981790963E+01-6.274923329E+01+
*       0.0000000000E+00               0
GRID*               7429               06.7737196351E+01-5.538878098E+01+
*       0.0000000000E+00               0
GRID*               7430               07.3609538346E+01-4.730624601E+01+
*       0.0000000000E+00               0
GRID*               7431               07.8522264341E+01-3.860699883E+01+
*       0.0000000000E+00               0
GRID*               7432               08.2411321826E+01-2.940444385E+01+
*       0.0000000000E+00               0
GRID*               7433               08.5226015171E+01-1.981855301E+01+
*       0.0000000000E+00               0
GRID*               7434               08.6929644942E+01-9.974292828E+00+
*       0.0000000000E+00               0
GRID*               7435               01.2451987534E+018.6609431846E+01+
*       0.0000000000E+00               0
GRID*               7436               02.4989752733E+008.7464300931E+01+
*       0.0000000000E+00               0
GRID*               7437               0-4.518336585E+017.4931385827E+01+
*       0.0000000000E+00               0
GRID*               7438               0-5.343042083E+016.9292423618E+01+
*       0.0000000000E+00               0
GRID*               7439               0-7.485991429E+008.7179157315E+01+
*       0.0000000000E+00               0
GRID*               7440               0-3.634726937E+017.9593488277E+01+
*       0.0000000000E+00               0
GRID*               7441               0-1.737491485E+018.5757552907E+01+
*       0.0000000000E+00               0
GRID*               7442               0-2.703732892E+018.3217960151E+01+
*       0.0000000000E+00               0
GRID*               7443               02.2243597689E+018.4625460537E+01+
*       0.0000000000E+00               0
GRID*               7444               04.0833007975E+017.7388073568E+01+
*       0.0000000000E+00               0
GRID*               7445               03.1745227260E+018.1538258567E+01+
*       0.0000000000E+00               0
GRID*               7446               08.0598242638E+013.4061273704E+01+
*       0.0000000000E+00               0
GRID*               7447               07.6190170858E+014.3026801993E+01+
*       0.0000000000E+00               0
GRID*               7448               04.9388463030E+017.2229004508E+01+
*       0.0000000000E+00               0
GRID*               7449               05.7300058007E+016.6128309311E+01+
*       0.0000000000E+00               0
GRID*               7450               07.0788834849E+015.1431406574E+01+
*       0.0000000000E+00               0
GRID*               7451               06.4464652312E+015.9165521616E+01+
*       0.0000000000E+00               0
GRID*               7452               08.3955580611E+012.4651700550E+01+
*       0.0000000000E+00               0
GRID*               7453               06.4464652312E+01-5.916552162E+01+
*       0.0000000000E+00               0
GRID*               7454               08.6218422976E+011.4920754201E+01+
*       0.0000000000E+00               0
GRID*               7455               08.7357266536E+014.9952919064E+00+
*       0.0000000000E+00               0
GRID*               7456               07.0788834849E+01-5.143140657E+01+
*       0.0000000000E+00               0
GRID*               7457               07.6190170858E+01-4.302680199E+01+
*       0.0000000000E+00               0
GRID*               7458               08.7357266536E+01-4.995291906E+00+
*       0.0000000000E+00               0
GRID*               7459               08.0598242638E+01-3.406127370E+01+
*       0.0000000000E+00               0
GRID*               7460               08.6218422976E+01-1.492075420E+01+
*       0.0000000000E+00               0
GRID*               7461               08.3955580611E+01-2.465170055E+01+
*       0.0000000000E+00               0
GRID*               7462               05.7300058007E+01-6.612830931E+01+
*       0.0000000000E+00               0
GRID*               7463               0-7.488461485E+00-8.717894519E+01+
*       0.0000000000E+00               0
GRID*               7464               04.9388463030E+01-7.222900451E+01+
*       0.0000000000E+00               0
GRID*               7465               02.4980460478E+00-8.746430835E+01+
*       0.0000000000E+00               0
GRID*               7466               04.0833007975E+01-7.738807357E+01+
*       0.0000000000E+00               0
GRID*               7467               01.2451987534E+01-8.660943185E+01+
*       0.0000000000E+00               0
GRID*               7468               03.1745227260E+01-8.153825857E+01+
*       0.0000000000E+00               0
GRID*               7469               02.2243597689E+01-8.462546054E+01+
*       0.0000000000E+00               0
GRID*               7470               0-1.737734463E+01-8.575706060E+01+
*       0.0000000000E+00               0
GRID*               7471               0-2.703968674E+01-8.321719409E+01+
*       0.0000000000E+00               0
GRID*               7472               0-8.241173258E+01-2.940327516E+01+
*       0.0000000000E+00               0
GRID*               7473               0-7.852281450E+01-3.860588932E+01+
*       0.0000000000E+00               0
GRID*               7474               0-4.518548888E+01-7.493010563E+01+
*       0.0000000000E+00               0
GRID*               7475               0-3.634952450E+01-7.959245844E+01+
*       0.0000000000E+00               0
GRID*               7476               0-5.343238409E+01-6.929090975E+01+
*       0.0000000000E+00               0
GRID*               7477               0-7.361022467E+01-4.730521483E+01+
*       0.0000000000E+00               0
GRID*               7478               0-6.773800279E+01-5.538783969E+01+
*       0.0000000000E+00               0
GRID*               7479               0-6.098269734E+01-6.274838799E+01+
*       0.0000000000E+00               0
GRID*               7480               0-8.522628011E+01-1.981734302E+01+
*       0.0000000000E+00               0
GRID*               7481               0-8.749996901E+011.2395740926E-03+
*       0.0000000000E+00               0
GRID*               7482               0-8.692975807E+01-9.973058610E+00+
*       0.0000000000E+00               0
GRID*               7483               0-8.692947547E+019.9755215989E+00+
*       0.0000000000E+00               0
GRID*               7484               0-7.360888435E+014.7307300428E+01+
*       0.0000000000E+00               0
GRID*               7485               0-8.522571861E+011.9819757743E+01+
*       0.0000000000E+00               0
GRID*               7486               0-7.852172067E+013.8608114114E+01+
*       0.0000000000E+00               0
GRID*               7487               0-8.241089948E+012.9405610138E+01+
*       0.0000000000E+00               0
GRID*               7488               0-6.773643346E+015.5389758907E+01+
*       0.0000000000E+00               0
GRID*               7489               0-6.098091946E+016.2750115797E+01+
*       0.0000000000E+00               0
GRID*               7490               08.6929644942E+01-9.974292828E+00+
*       2.0000000000E+01               0
GRID*               7491               08.5226015171E+01-1.981855301E+01+
*       2.0000000000E+01               0
GRID*               7492               08.2411321826E+01-2.940444385E+01+
*       2.0000000000E+01               0
GRID*               7493               07.8522264341E+01-3.860699883E+01+
*       2.0000000000E+01               0
GRID*               7494               07.3609538346E+01-4.730624601E+01+
*       2.0000000000E+01               0
GRID*               7495               06.7737196351E+01-5.538878098E+01+
*       2.0000000000E+01               0
GRID*               7496               06.0981790963E+01-6.274923329E+01+
*       2.0000000000E+01               0
GRID*               7497               05.3431386935E+01-6.929164615E+01+
*       2.0000000000E+01               0
GRID*               7498               04.5184418631E+01-7.493073160E+01+
*       2.0000000000E+01               0
GRID*               7499               03.6348395817E+01-7.959297128E+01+
*       2.0000000000E+01               0
GRID*               7500               02.7038511744E+01-8.321758858E+01+
*       2.0000000000E+01               0
GRID*               7501               01.7376134832E+01-8.575732803E+01+
*       2.0000000000E+01               0
GRID*               7502               07.4872299019E+00-8.717907879E+01+
*       2.0000000000E+01               0
GRID*               7503               0-2.499284574E+00-8.746430189E+01+
*       2.0000000000E+01               0
GRID*               7504               0-1.245321634E+01-8.660927990E+01+
*       2.0000000000E+01               0
GRID*               7505               0-2.224479784E+01-8.462515718E+01+
*       2.0000000000E+01               0
GRID*               7506               0-3.174638086E+01-8.153780906E+01+
*       2.0000000000E+01               0
GRID*               7507               0-4.083409753E+01-7.738748484E+01+
*       2.0000000000E+01               0
GRID*               7508               0-4.938947430E+01-7.222828916E+01+
*       2.0000000000E+01               0
GRID*               7509               0-5.730097547E+01-6.612747646E+01+
*       2.0000000000E+01               0
GRID*               7510               0-6.446546684E+01-5.916458683E+01+
*       2.0000000000E+01               0
GRID*               7511               0-7.078954691E+01-5.143039168E+01+
*       2.0000000000E+01               0
GRID*               7512               0-7.619076854E+01-4.302571577E+01+
*       2.0000000000E+01               0
GRID*               7513               0-8.059872203E+01-3.406012995E+01+
*       2.0000000000E+01               0
GRID*               7514               0-8.395594476E+01-2.465051507E+01+
*       2.0000000000E+01               0
GRID*               7515               0-8.621865406E+01-1.491953611E+01+
*       2.0000000000E+01               0
GRID*               7516               0-8.735736382E+01-4.994055833E+00+
*       2.0000000000E+01               0
GRID*               7517               0-8.735722228E+014.9965309375E+00+
*       2.0000000000E+01               0
GRID*               7518               0-8.621823129E+011.4921978945E+01+
*       2.0000000000E+01               0
GRID*               7519               0-8.395524628E+012.4652893782E+01+
*       2.0000000000E+01               0
GRID*               7520               0-8.059775695E+013.4062413537E+01+
*       2.0000000000E+01               0
GRID*               7521               0-7.618954944E+014.3027874464E+01+
*       2.0000000000E+01               0
GRID*               7522               0-7.078808969E+015.1432397345E+01+
*       2.0000000000E+01               0
GRID*               7523               0-6.446379049E+015.9166413312E+01+
*       2.0000000000E+01               0
GRID*               7524               0-5.729910185E+016.6129099956E+01+
*       2.0000000000E+01               0
GRID*               7525               0-4.938742784E+017.2229688502E+01+
*       2.0000000000E+01               0
GRID*               7526               0-4.083190489E+017.7388641788E+01+
*       2.0000000000E+01               0
GRID*               7527               0-3.174407064E+018.1538708524E+01+
*       2.0000000000E+01               0
GRID*               7528               0-2.224240014E+018.4625787428E+01+
*       2.0000000000E+01               0
GRID*               7529               0-1.245076243E+018.6609632718E+01+
*       2.0000000000E+01               0
GRID*               7530               0-2.496806437E+008.7464372667E+01+
*       2.0000000000E+01               0
GRID*               7531               07.4872299019E+008.7179078787E+01+
*       2.0000000000E+01               0
GRID*               7532               01.7376134832E+018.5757328035E+01+
*       2.0000000000E+01               0
GRID*               7533               02.7038511744E+018.3217588579E+01+
*       2.0000000000E+01               0
GRID*               7534               03.6348395817E+017.9592971276E+01+
*       2.0000000000E+01               0
GRID*               7535               04.5184418631E+017.4930731599E+01+
*       2.0000000000E+01               0
GRID*               7536               05.3431386935E+016.9291646148E+01+
*       2.0000000000E+01               0
GRID*               7537               06.0981790963E+016.2749233293E+01+
*       2.0000000000E+01               0
GRID*               7538               06.7737196351E+015.5388780982E+01+
*       2.0000000000E+01               0
GRID*               7539               07.3609538346E+014.7306246012E+01+
*       2.0000000000E+01               0
GRID*               7540               07.8522264341E+013.8606998832E+01+
*       2.0000000000E+01               0
GRID*               7541               08.2411321826E+012.9404443852E+01+
*       2.0000000000E+01               0
GRID*               7542               08.5226015171E+011.9818553009E+01+
*       2.0000000000E+01               0
GRID*               7543               08.6929644942E+019.9742928282E+00+
*       2.0000000000E+01               0
GRID*               7544               02.2243597689E+018.4625460537E+01+
*       2.0000000000E+01               0
GRID*               7545               04.0833007975E+017.7388073568E+01+
*       2.0000000000E+01               0
GRID*               7546               03.1745227260E+018.1538258567E+01+
*       2.0000000000E+01               0
GRID*               7547               04.9388463030E+017.2229004508E+01+
*       2.0000000000E+01               0
GRID*               7548               07.6190170858E+014.3026801993E+01+
*       2.0000000000E+01               0
GRID*               7549               07.0788834849E+015.1431406574E+01+
*       2.0000000000E+01               0
GRID*               7550               06.4464652312E+015.9165521616E+01+
*       2.0000000000E+01               0
GRID*               7551               05.7300058007E+016.6128309311E+01+
*       2.0000000000E+01               0
GRID*               7552               01.2451987534E+018.6609431846E+01+
*       2.0000000000E+01               0
GRID*               7553               02.4989752733E+008.7464300931E+01+
*       2.0000000000E+01               0
GRID*               7554               0-1.737491485E+018.5757552907E+01+
*       2.0000000000E+01               0
GRID*               7555               0-7.485991429E+008.7179157315E+01+
*       2.0000000000E+01               0
GRID*               7556               0-3.634726937E+017.9593488277E+01+
*       2.0000000000E+01               0
GRID*               7557               0-2.703732892E+018.3217960151E+01+
*       2.0000000000E+01               0
GRID*               7558               0-4.518336585E+017.4931385827E+01+
*       2.0000000000E+01               0
GRID*               7559               0-5.343042083E+016.9292423618E+01+
*       2.0000000000E+01               0
GRID*               7560               0-6.773643346E+015.5389758907E+01+
*       2.0000000000E+01               0
GRID*               7561               0-8.241089948E+012.9405610138E+01+
*       2.0000000000E+01               0
GRID*               7562               0-7.360888435E+014.7307300428E+01+
*       2.0000000000E+01               0
GRID*               7563               0-7.852172067E+013.8608114114E+01+
*       2.0000000000E+01               0
GRID*               7564               0-6.098091946E+016.2750115797E+01+
*       2.0000000000E+01               0
GRID*               7565               0-8.522571861E+011.9819757743E+01+
*       2.0000000000E+01               0
GRID*               7566               0-8.692947547E+019.9755215989E+00+
*       2.0000000000E+01               0
GRID*               7567               0-8.749996901E+011.2395740927E-03+
*       2.0000000000E+01               0
GRID*               7568               0-8.692975807E+01-9.973058610E+00+
*       2.0000000000E+01               0
GRID*               7569               0-8.522628011E+01-1.981734302E+01+
*       2.0000000000E+01               0
GRID*               7570               0-8.241173258E+01-2.940327516E+01+
*       2.0000000000E+01               0
GRID*               7571               0-4.518548888E+01-7.493010563E+01+
*       2.0000000000E+01               0
GRID*               7572               0-3.634952450E+01-7.959245844E+01+
*       2.0000000000E+01               0
GRID*               7573               0-5.343238409E+01-6.929090975E+01+
*       2.0000000000E+01               0
GRID*               7574               0-7.852281450E+01-3.860588932E+01+
*       2.0000000000E+01               0
GRID*               7575               0-7.361022467E+01-4.730521483E+01+
*       2.0000000000E+01               0
GRID*               7576               0-6.773800279E+01-5.538783969E+01+
*       2.0000000000E+01               0
GRID*               7577               0-6.098269734E+01-6.274838799E+01+
*       2.0000000000E+01               0
GRID*               7578               0-2.703968674E+01-8.321719409E+01+
*       2.0000000000E+01               0
GRID*               7579               0-1.737734463E+01-8.575706060E+01+
*       2.0000000000E+01               0
GRID*               7580               0-7.488461485E+00-8.717894519E+01+
*       2.0000000000E+01               0
GRID*               7581               07.0788834849E+01-5.143140657E+01+
*       2.0000000000E+01               0
GRID*               7582               07.6190170858E+01-4.302680199E+01+
*       2.0000000000E+01               0
GRID*               7583               08.3955580611E+01-2.465170055E+01+
*       2.0000000000E+01               0
GRID*               7584               08.0598242638E+01-3.406127370E+01+
*       2.0000000000E+01               0
GRID*               7585               05.7300058007E+01-6.612830931E+01+
*       2.0000000000E+01               0
GRID*               7586               04.9388463030E+01-7.222900451E+01+
*       2.0000000000E+01               0
GRID*               7587               02.4980460478E+00-8.746430835E+01+
*       2.0000000000E+01               0
GRID*               7588               04.0833007975E+01-7.738807357E+01+
*       2.0000000000E+01               0
GRID*               7589               01.2451987534E+01-8.660943185E+01+
*       2.0000000000E+01               0
GRID*               7590               03.1745227260E+01-8.153825857E+01+
*       2.0000000000E+01               0
GRID*               7591               02.2243597689E+01-8.462546054E+01+
*       2.0000000000E+01               0
GRID*               7592               06.4464652312E+01-5.916552162E+01+
*       2.0000000000E+01               0
GRID*               7593               08.7357266536E+01-4.995291906E+00+
*       2.0000000000E+01               0
GRID*               7594               08.6218422976E+01-1.492075420E+01+
*       2.0000000000E+01               0
GRID*               7595               08.6218422976E+011.4920754201E+01+
*       2.0000000000E+01               0
GRID*               7596               08.7357266536E+014.9952919064E+00+
*       2.0000000000E+01               0
GRID*               7597               08.0598242638E+013.4061273704E+01+
*       2.0000000000E+01               0
GRID*               7598               08.3955580611E+012.4651700550E+01+
*       2.0000000000E+01               0
GRID*               7711               0-5.421629510E+01-5.948523015E+00+
*       0.0000000000E+00               0
GRID*               7712               0-5.976040297E+01-3.652078214E+00+
*       0.0000000000E+00               0
GRID*               7713               0-6.054327774E+012.2961003780E+00+
*       0.0000000000E+00               0
GRID*               7714               0-5.578370473E+015.9485230373E+00+
*       0.0000000000E+00               0
GRID*               7715               0-5.023959655E+013.6520783581E+00+
*       0.0000000000E+00               0
GRID*               7716               0-4.905147692E+017.8370482420E-01+
*       0.0000000000E+00               0
GRID*               7717               0-5.134792152E+01-4.760403439E+00+
*       0.0000000000E+00               0
GRID*               7718               0-5.729610021E+01-5.543277432E+00+
*       0.0000000000E+00               0
GRID*               7719               0-6.094852308E+01-7.837048242E-01+
*       0.0000000000E+00               0
GRID*               7720               0-5.865207834E+014.7604035449E+00+
*       0.0000000000E+00               0
GRID*               7721               0-5.270389963E+015.5432773656E+00+
*       0.0000000000E+00               0
GRID*               7722               0-5.023959655E+013.6520783581E+00+
*       2.0000000000E+01               0
GRID*               7723               0-5.578370473E+015.9485230373E+00+
*       2.0000000000E+01               0
GRID*               7724               0-6.054327774E+012.2961003780E+00+
*       2.0000000000E+01               0
GRID*               7725               0-5.976040297E+01-3.652078214E+00+
*       2.0000000000E+01               0
GRID*               7726               0-5.421629510E+01-5.948523015E+00+
*       2.0000000000E+01               0
GRID*               7727               0-4.905147692E+017.8370482420E-01+
*       2.0000000000E+01               0
GRID*               7728               0-5.270389963E+015.5432773656E+00+
*       2.0000000000E+01               0
GRID*               7729               0-5.865207834E+014.7604035449E+00+
*       2.0000000000E+01               0
GRID*               7730               0-6.094852308E+01-7.837048242E-01+
*       2.0000000000E+01               0
GRID*               7731               0-5.729610021E+01-5.543277432E+00+
*       2.0000000000E+01               0
GRID*               7732               0-5.134792152E+01-4.760403439E+00+
*       2.0000000000E+01               0
GRID*               7755               03.7783381672E+011.3130685730E+01+
*       2.0000000000E+01               0
GRID*               7756               03.9722577720E+014.7025505880E+00+
*       2.0000000000E+01               0
GRID*               7757               03.9804430541E+01-3.950051041E+00+
*       2.0000000000E+01               0
GRID*               7758               03.8025095514E+01-1.241337857E+01+
*       2.0000000000E+01               0
GRID*               7759               03.4466749651E+01-2.029884016E+01+
*       2.0000000000E+01               0
GRID*               7760               02.9296916530E+01-2.723395151E+01+
*       2.0000000000E+01               0
GRID*               7761               02.2759102454E+01-3.289412121E+01+
*       2.0000000000E+01               0
GRID*               7762               01.5155571671E+01-3.701761110E+01+
*       2.0000000000E+01               0
GRID*               7763               06.8443738919E+00-3.941008029E+01+
*       2.0000000000E+01               0
GRID*               7764               0-1.789401233E+00-3.995995113E+01+
*       2.0000000000E+01               0
GRID*               7765               0-1.033775571E+01-3.864099727E+01+
*       2.0000000000E+01               0
GRID*               7766               0-1.840163696E+01-3.551591024E+01+
*       2.0000000000E+01               0
GRID*               7767               0-2.560581331E+01-3.073007417E+01+
*       2.0000000000E+01               0
GRID*               7768               0-3.161301911E+01-2.450748007E+01+
*       2.0000000000E+01               0
GRID*               7769               0-3.614307767E+01-1.713702566E+01+
*       2.0000000000E+01               0
GRID*               7770               0-3.898185975E+01-8.967141348E+00+
*       2.0000000000E+01               0
GRID*               7771               0-3.999821250E+01-3.781282866E-01+
*       2.0000000000E+01               0
GRID*               7772               0-3.914457581E+018.2278989700E+00+
*       2.0000000000E+01               0
GRID*               7773               0-3.646065682E+011.6450534161E+01+
*       2.0000000000E+01               0
GRID*               7774               0-3.207078920E+012.3905320316E+01+
*       2.0000000000E+01               0
GRID*               7775               0-2.618272170E+013.0240040676E+01+
*       2.0000000000E+01               0
GRID*               7776               0-1.906978811E+013.5161673128E+01+
*       2.0000000000E+01               0
GRID*               7777               0-1.106709971E+013.8438481602E+01+
*       2.0000000000E+01               0
GRID*               7778               0-2.544666682E+003.9918974512E+01+
*       2.0000000000E+01               0
GRID*               7779               06.0978088284E+003.9532476583E+01+
*       2.0000000000E+01               0
GRID*               7780               01.4452390390E+013.7297775436E+01+
*       2.0000000000E+01               0
GRID*               7781               02.2133168274E+013.3318506539E+01+
*       2.0000000000E+01               0
GRID*               7782               02.8776349543E+012.7783464774E+01+
*       2.0000000000E+01               0
GRID*               7783               01.8401714530E+013.5515869239E+01+
*       2.0000000000E+01               0
GRID*               7784               02.6180757568E+01-3.024181606E+01+
*       2.0000000000E+01               0
GRID*               7785               0-3.407783415E+01-2.094507646E+01+
*       2.0000000000E+01               0
GRID*               7786               0-3.778352674E+01-1.313030192E+01+
*       2.0000000000E+01               0
GRID*               7787               0-3.949003612E+01-4.672634818E+00+
*       2.0000000000E+01               0
GRID*               7788               0-2.877906601E+01-2.778066323E+01+
*       2.0000000000E+01               0
GRID*               7789               0-2.213257713E+01-3.331888561E+01+
*       2.0000000000E+01               0
GRID*               7790               0-1.515807486E+013.7016647672E+01+
*       2.0000000000E+01               0
GRID*               7791               0-2.275874252E+013.2894363770E+01+
*       2.0000000000E+01               0
GRID*               7792               01.0335125073E+013.8641754987E+01+
*       2.0000000000E+01               0
GRID*               7793               01.7861015126E+003.9960060941E+01+
*       2.0000000000E+01               0
GRID*               7794               0-6.844573390E+003.9410039826E+01+
*       2.0000000000E+01               0
GRID*               7795               0-3.802503185E+011.2413573836E+01+
*       2.0000000000E+01               0
GRID*               7796               0-3.980477535E+013.9470393746E+00+
*       2.0000000000E+01               0
GRID*               7797               0-2.929916767E+012.7231573336E+01+
*       2.0000000000E+01               0
GRID*               7798               0-3.446807447E+012.0296486789E+01+
*       2.0000000000E+01               0
GRID*               7799               01.1063862147E+01-3.843944340E+01+
*       2.0000000000E+01               0
GRID*               7800               01.9070105968E+01-3.516149303E+01+
*       2.0000000000E+01               0
GRID*               7801               02.5274863295E+00-3.968501571E+01+
*       2.0000000000E+01               0
GRID*               7802               0-6.097735597E+00-3.953248846E+01+
*       2.0000000000E+01               0
GRID*               7803               0-1.445534324E+01-3.729667734E+01+
*       2.0000000000E+01               0
GRID*               7804               03.9144070010E+01-8.230541132E+00+
*       2.0000000000E+01               0
GRID*               7805               03.6459310800E+01-1.645342384E+01+
*       2.0000000000E+01               0
GRID*               7806               03.2070751708E+01-2.390536450E+01+
*       2.0000000000E+01               0
GRID*               7807               03.8981454092E+018.9691851695E+00+
*       2.0000000000E+01               0
GRID*               7808               03.9998206227E+013.7846912429E-01+
*       2.0000000000E+01               0
GRID*               7809               03.6141461878E+011.7140393338E+01+
*       2.0000000000E+01               0
GRID*               7810               03.1612641721E+012.4507934023E+01+
*       2.0000000000E+01               0
GRID*               7811               02.5604190928E+013.0731503131E+01+
*       2.0000000000E+01               0
GRID*               8118               0-2.671629555E+01-5.357992032E+01+
*       0.0000000000E+00               0
GRID*               8119               0-3.226040345E+01-5.128347509E+01+
*       0.0000000000E+00               0
GRID*               8120               0-3.304327761E+01-4.533529631E+01+
*       0.0000000000E+00               0
GRID*               8121               0-2.828370456E+01-4.168287400E+01+
*       0.0000000000E+00               0
GRID*               8122               0-2.273959619E+01-4.397931869E+01+
*       0.0000000000E+00               0
GRID*               8123               0-2.155147695E+01-4.684769258E+01+
*       0.0000000000E+00               0
GRID*               8124               0-2.384792200E+01-5.239180069E+01+
*       0.0000000000E+00               0
GRID*               8125               0-2.979610074E+01-5.317467494E+01+
*       0.0000000000E+00               0
GRID*               8126               0-3.344852309E+01-4.841510157E+01+
*       0.0000000000E+00               0
GRID*               8127               0-3.115207839E+01-4.287099331E+01+
*       0.0000000000E+00               0
GRID*               8128               0-2.520389926E+01-4.208811956E+01+
*       0.0000000000E+00               0
GRID*               7733               0-2.671629555E+01-5.357992032E+01+
*       2.0000000000E+01               0
GRID*               7734               0-3.226040345E+01-5.128347509E+01+
*       2.0000000000E+01               0
GRID*               7735               0-3.304327761E+01-4.533529631E+01+
*       2.0000000000E+01               0
GRID*               7736               0-2.828370456E+01-4.168287400E+01+
*       2.0000000000E+01               0
GRID*               7737               0-2.273959619E+01-4.397931869E+01+
*       2.0000000000E+01               0
GRID*               7738               0-3.115207839E+01-4.287099331E+01+
*       2.0000000000E+01               0
GRID*               7739               0-3.344852309E+01-4.841510157E+01+
*       2.0000000000E+01               0
GRID*               7740               0-2.979610074E+01-5.317467494E+01+
*       2.0000000000E+01               0
GRID*               7741               0-2.520389926E+01-4.208811956E+01+
*       2.0000000000E+01               0
GRID*               7742               0-2.384792200E+01-5.239180069E+01+
*       2.0000000000E+01               0
GRID*               7743               0-2.155147695E+01-4.684769258E+01+
*       2.0000000000E+01               0
GRID*               8129               0-2.671629520E+014.1682874220E+01+
*       0.0000000000E+00               0
GRID*               8130               0-3.226040359E+014.3979318408E+01+
*       0.0000000000E+00               0
GRID*               8131               0-3.304327788E+014.9927497538E+01+
*       0.0000000000E+00               0
GRID*               8132               0-2.828370491E+015.3579920449E+01+
*       0.0000000000E+00               0
GRID*               8133               0-2.273959676E+015.1283475368E+01+
*       0.0000000000E+00               0
GRID*               8134               0-2.155147695E+014.8415101918E+01+
*       0.0000000000E+00               0
GRID*               8135               0-2.384792133E+014.2870993523E+01+
*       0.0000000000E+00               0
GRID*               8136               0-2.979610041E+014.2088119423E+01+
*       0.0000000000E+00               0
GRID*               8137               0-3.344852300E+014.6847692226E+01+
*       0.0000000000E+00               0
GRID*               8138               0-3.115207828E+015.2391800471E+01+
*       0.0000000000E+00               0
GRID*               8139               0-2.520389959E+015.3174675071E+01+
*       0.0000000000E+00               0
GRID*               7823               0-2.671629520E+014.1682874220E+01+
*       2.0000000000E+01               0
GRID*               7824               0-3.226040359E+014.3979318408E+01+
*       2.0000000000E+01               0
GRID*               7825               0-3.304327788E+014.9927497538E+01+
*       2.0000000000E+01               0
GRID*               7826               0-2.828370491E+015.3579920449E+01+
*       2.0000000000E+01               0
GRID*               7827               0-2.273959676E+015.1283475368E+01+
*       2.0000000000E+01               0
GRID*               7828               0-2.384792133E+014.2870993523E+01+
*       2.0000000000E+01               0
GRID*               7829               0-2.155147695E+014.8415101918E+01+
*       2.0000000000E+01               0
GRID*               7830               0-2.520389959E+015.3174675071E+01+
*       2.0000000000E+01               0
GRID*               7831               0-2.979610041E+014.2088119423E+01+
*       2.0000000000E+01               0
GRID*               7832               0-3.115207828E+015.2391800471E+01+
*       2.0000000000E+01               0
GRID*               7833               0-3.344852300E+014.6847692226E+01+
*       2.0000000000E+01               0
GRID*               7845               02.1994547592E+012.1233970262E+01+
*       2.6666666031E+01               0
GRID*               7846               01.6915111853E+012.5466069156E+01+
*       2.6666666031E+01               0
GRID*               7847               01.1044834277E+012.8507052525E+01+
*       2.6666666031E+01               0
GRID*               7848               04.6585109757E+003.0214895832E+01+
*       2.6666666031E+01               0
GRID*               7849               0-1.944846691E+003.0509986117E+01+
*       2.6666666031E+01               0
GRID*               7850               0-8.458184555E+002.9378575234E+01+
*       2.6666666031E+01               0
GRID*               7851               0-1.457657308E+012.6873109564E+01+
*       2.6666666031E+01               0
GRID*               7852               0-2.001270228E+012.3111324181E+01+
*       2.6666666031E+01               0
GRID*               7853               0-2.451270364E+011.8269345895E+01+
*       2.6666666031E+01               0
GRID*               7854               0-2.786694662E+011.2572782652E+01+
*       2.6666666031E+01               0
GRID*               7855               0-2.991834578E+016.2876053882E+00+
*       2.6666666031E+01               0
GRID*               7856               0-3.057053370E+01-2.898968857E-01+
*       2.6666666031E+01               0
GRID*               7857               0-2.979358464E+01-6.854471272E+00+
*       2.6666666031E+01               0
GRID*               7858               0-2.762349863E+01-1.309900493E+01+
*       2.6666666031E+01               0
GRID*               7859               0-2.416087129E+01-1.873215807E+01+
*       2.6666666031E+01               0
GRID*               7860               0-1.956986644E+01-2.348748517E+01+
*       2.6666666031E+01               0
GRID*               7861               0-1.406307604E+01-2.714537315E+01+
*       2.6666666031E+01               0
GRID*               7862               0-7.898759557E+00-2.953389759E+01+
*       2.6666666031E+01               0
GRID*               7863               0-1.363988342E+00-3.054146730E+01+
*       2.6666666031E+01               0
GRID*               7864               05.2325937615E+00-3.012078394E+01+
*       2.6666666031E+01               0
GRID*               7865               01.1586256034E+01-2.829134454E+01+
*       2.6666666031E+01               0
GRID*               7866               01.7396983861E+01-2.513933917E+01+
*       2.6666666031E+01               0
GRID*               7867               02.2395486221E+01-2.081066637E+01+
*       2.6666666031E+01               0
GRID*               7868               02.6345218884E+01-1.551035551E+01+
*       2.6666666031E+01               0
GRID*               7869               02.9063203275E+01-9.485348273E+00+
*       2.6666666031E+01               0
GRID*               7870               03.0422731382E+01-3.016441241E+00+
*       2.6666666107E+01               0
GRID*               7871               03.0359761859E+013.5953445521E+00+
*       2.6666666027E+01               0
GRID*               7872               02.8877201007E+011.0037360852E+01+
*       2.6666666031E+01               0
GRID*               7873               02.7461002313E+011.3023521277E+01+
*       2.6666666031E+01               0
GRID*               7874               02.9618481433E+016.8163527022E+00+
*       2.6666666029E+01               0
GRID*               7875               03.0391246621E+012.8945165553E-01+
*       2.6666666067E+01               0
GRID*               7876               02.9918343418E+01-6.287628025E+00+
*       2.6666666031E+01               0
GRID*               7877               02.7704211080E+01-1.249785189E+01+
*       2.6666666031E+01               0
GRID*               7878               02.4370352552E+01-1.816051094E+01+
*       2.6666666031E+01               0
GRID*               7879               01.9896235041E+01-2.297500277E+01+
*       2.6666666031E+01               0
GRID*               7880               01.4491619948E+01-2.671534185E+01+
*       2.6666666031E+01               0
GRID*               7881               08.4594346681E+00-2.937820276E+01+
*       2.6666666031E+01               0
GRID*               7882               01.9456886997E+00-3.050993246E+01+
*       2.6666666031E+01               0
GRID*               7883               0-4.659067109E+00-3.021479353E+01+
*       2.6666666031E+01               0
GRID*               7884               0-1.098091780E+01-2.833963537E+01+
*       2.6666666031E+01               0
GRID*               7885               0-1.681647124E+01-2.531642916E+01+
*       2.6666666031E+01               0
GRID*               7886               0-2.186536886E+01-2.110982162E+01+
*       2.6666666031E+01               0
GRID*               7887               0-2.604507626E+01-1.600919360E+01+
*       2.6666666031E+01               0
GRID*               7888               0-2.887781780E+01-1.003557882E+01+
*       2.6666666031E+01               0
GRID*               7889               0-3.018205917E+01-3.572184079E+00+
*       2.6666666031E+01               0
GRID*               7890               0-3.042273113E+013.0164630025E+00+
*       2.6666666031E+01               0
GRID*               7891               0-2.889264620E+019.4301940202E+00+
*       2.6666666031E+01               0
GRID*               7892               0-2.618982513E+011.5421064273E+01+
*       2.6666666031E+01               0
GRID*               7893               0-2.239385858E+012.0812417835E+01+
*       2.6666666031E+01               0
GRID*               7894               0-1.729463768E+012.4992216872E+01+
*       2.6666666031E+01               0
GRID*               7895               0-1.151737882E+012.8125842399E+01+
*       2.6666666031E+01               0
GRID*               7896               0-5.232457227E+003.0120805106E+01+
*       2.6666666031E+01               0
GRID*               7897               01.3568321422E+003.0362440974E+01+
*       2.6666666031E+01               0
GRID*               7898               07.8516726263E+002.9360974178E+01+
*       2.6666666031E+01               0
GRID*               7899               01.3979973065E+012.6986560840E+01+
*       2.6666666031E+01               0
GRID*               7900               01.9569374420E+012.3487894967E+01+
*       2.6666666031E+01               0
GRID*               7901               02.4019675606E+011.8621825982E+01+
*       2.6666666031E+01               0
GRID*               7902               02.2161199268E+01-1.979408085E+01+
*       -6.666666508E+00               0
GRID*               7903               02.6128994834E+01-1.414919731E+01+
*       -6.666666508E+00               0
GRID*               7904               02.8687530684E+01-7.742631250E+00+
*       -6.666666508E+00               0
GRID*               7905               02.9699877759E+01-9.174435315E-01+
*       -6.666666796E+00               0
GRID*               7906               02.9110987826E+015.9560354900E+00+
*       -6.666666508E+00               0
GRID*               7907               02.6952624736E+011.2509212228E+01+
*       -6.666666508E+00               0
GRID*               7908               02.3341350492E+011.8387612749E+01+
*       -6.666666508E+00               0
GRID*               7909               01.8471694882E+012.3274899988E+01+
*       -6.666666508E+00               0
GRID*               7910               01.2606099720E+012.6907416380E+01+
*       -6.666666508E+00               0
GRID*               7911               06.0612210324E+002.9089274720E+01+
*       -6.666666508E+00               0
GRID*               7912               0-8.109679557E-012.9702971476E+01+
*       -6.666666508E+00               0
GRID*               7913               0-7.638491654E+002.8715463741E+01+
*       -6.666666508E+00               0
GRID*               7914               0-1.405550900E+012.6179485526E+01+
*       -6.666666508E+00               0
GRID*               7915               0-1.971354926E+012.2232862865E+01+
*       -6.666666508E+00               0
GRID*               7916               0-2.430983340E+011.7086728250E+01+
*       -6.666666508E+00               0
GRID*               7917               0-2.759463027E+011.1020926626E+01+
*       -6.666666508E+00               0
GRID*               7918               0-2.939260899E+014.3587366694E+00+
*       -6.666666508E+00               0
GRID*               7919               0-2.960562847E+01-2.535988569E+00+
*       -6.666666508E+00               0
GRID*               7920               0-2.822246064E+01-9.296043182E+00+
*       -6.666666508E+00               0
GRID*               7921               0-2.531847505E+01-1.555309317E+01+
*       -6.666666508E+00               0
GRID*               7922               0-2.104829868E+01-2.097364174E+01+
*       -6.666666508E+00               0
GRID*               7923               0-1.564541833E+01-2.526153863E+01+
*       -6.666666508E+00               0
GRID*               7924               0-9.396662725E+00-2.818912382E+01+
*       -6.666666508E+00               0
GRID*               7925               0-2.643593712E+00-2.959620247E+01+
*       -6.666666508E+00               0
GRID*               7926               04.2539157707E+00-2.940796847E+01+
*       -6.666666508E+00               0
GRID*               7927               01.0920165850E+01-2.763464928E+01+
*       -6.666666508E+00               0
GRID*               7928               01.9580550043E+01-2.208235746E+01+
*       -6.666666508E+00               0
GRID*               7929               02.4145097051E+01-1.697163908E+01+
*       -6.666666508E+00               0
GRID*               7930               02.7594734363E+01-1.102066363E+01+
*       -6.666666508E+00               0
GRID*               7931               02.9193704222E+01-4.330037391E+00+
*       -6.666666652E+00               0
GRID*               7932               02.9605638001E+012.5358141890E+00+
*       -6.666666440E+00               0
GRID*               7933               02.8031806281E+019.2326238588E+00+
*       -6.666666508E+00               0
GRID*               7934               02.5146987614E+011.5448412489E+01+
*       -6.666666508E+00               0
GRID*               7935               02.0906522687E+012.0831256369E+01+
*       -6.666666508E+00               0
GRID*               7936               01.5538897301E+012.5091158184E+01+
*       -6.666666508E+00               0
GRID*               7937               09.3966989320E+002.8189121292E+01+
*       -6.666666508E+00               0
GRID*               7938               02.6439537477E+002.9596181344E+01+
*       -6.666666508E+00               0
GRID*               7939               0-4.224729805E+002.9209217608E+01+
*       -6.666666508E+00               0
GRID*               7940               0-1.084700033E+012.7447474633E+01+
*       -6.666666508E+00               0
GRID*               7941               0-1.688452913E+012.4206174196E+01+
*       -6.666666508E+00               0
GRID*               7942               0-2.201169133E+011.9659795558E+01+
*       -6.666666508E+00               0
GRID*               7943               0-2.612910986E+011.4148995805E+01+
*       -6.666666508E+00               0
GRID*               7944               0-2.849361963E+017.6898316475E+00+
*       -6.666666508E+00               0
GRID*               7945               0-2.949911873E+019.1137405001E-01+
*       -6.666666508E+00               0
GRID*               7946               0-2.891404455E+01-5.916015876E+00+
*       -6.666666508E+00               0
GRID*               7947               0-2.677046784E+01-1.242456817E+01+
*       -6.666666508E+00               0
GRID*               7948               0-2.318338686E+01-1.826336745E+01+
*       -6.666666508E+00               0
GRID*               7949               0-1.847168578E+01-2.327490723E+01+
*       -6.666666508E+00               0
GRID*               7950               0-1.260610326E+01-2.690742636E+01+
*       -6.666666508E+00               0
GRID*               7951               0-6.020128218E+00-2.889266315E+01+
*       -6.666666508E+00               0
GRID*               7952               08.1096718288E-01-2.970294678E+01+
*       -6.666666508E+00               0
GRID*               7953               07.5870408105E+00-2.852130887E+01+
*       -6.666666508E+00               0
GRID*               7954               01.4055522198E+01-2.617951093E+01+
*       -6.666666508E+00               0
GRID*               8061               02.4807719362E+017.2940090764E+00+
*       3.0000000000E+01               0
GRID*               8062               02.5795822111E+011.7899271743E+00+
*       3.0000000000E+01               0
GRID*               8063               02.5577589289E+01-3.796841478E+00+
*       3.0000000000E+01               0
GRID*               8064               02.4163733346E+01-9.205570751E+00+
*       3.0000000000E+01               0
GRID*               8065               02.1620530453E+01-1.418385628E+01+
*       3.0000000000E+01               0
GRID*               8066               01.8065541196E+01-1.850041399E+01+
*       3.0000000000E+01               0
GRID*               8067               01.3667523394E+01-2.195057864E+01+
*       3.0000000000E+01               0
GRID*               8068               08.6275886496E+00-2.437609020E+01+
*       3.0000000000E+01               0
GRID*               8069               03.1851752160E+00-2.566086879E+01+
*       3.0000000000E+01               0
GRID*               8070               0-2.407338546E+00-2.574554885E+01+
*       3.0000000000E+01               0
GRID*               8071               0-7.885420363E+00-2.462619164E+01+
*       3.0000000000E+01               0
GRID*               8072               0-1.299401699E+01-2.235582734E+01+
*       3.0000000000E+01               0
GRID*               8073               0-1.749555869E+01-1.904033396E+01+
*       3.0000000000E+01               0
GRID*               8074               0-2.118006848E+01-1.483351876E+01+
*       3.0000000000E+01               0
GRID*               8075               0-2.387324109E+01-9.934660586E+00+
*       3.0000000000E+01               0
GRID*               8076               0-2.545121865E+01-4.567776857E+00+
*       3.0000000000E+01               0
GRID*               8077               0-2.583813880E+011.0094982017E+00+
*       3.0000000000E+01               0
GRID*               8078               0-2.501749513E+016.5386602808E+00+
*       3.0000000000E+01               0
GRID*               8079               0-2.302691723E+011.1763924789E+01+
*       3.0000000000E+01               0
GRID*               8080               0-1.996033496E+011.6438133849E+01+
*       3.0000000000E+01               0
GRID*               8081               0-1.596005994E+012.0344665200E+01+
*       3.0000000000E+01               0
GRID*               8082               0-1.121270584E+012.3300257747E+01+
*       3.0000000000E+01               0
GRID*               8083               0-5.942004540E+002.5165876179E+01+
*       3.0000000000E+01               0
GRID*               8084               0-3.898550590E-012.5854918064E+01+
*       3.0000000000E+01               0
GRID*               8085               05.1769392696E+002.5334333716E+01+
*       3.0000000000E+01               0
GRID*               8086               01.0500583117E+012.3629787587E+01+
*       3.0000000000E+01               0
GRID*               8087               01.5335018710E+012.0819845599E+01+
*       3.0000000000E+01               0
GRID*               8088               01.9451293154E+011.7037463129E+01+
*       3.0000000000E+01               0
GRID*               8089               02.3733569688E+019.8755649859E+00+
*       3.0000000000E+01               0
GRID*               8090               02.5301770736E+014.5419681253E+00+
*       3.0000000000E+01               0
GRID*               8091               02.5686705700E+01-1.003457152E+00+
*       3.0000000000E+01               0
GRID*               8092               02.5017495127E+01-6.538660281E+00+
*       3.0000000000E+01               0
GRID*               8093               02.3026917228E+01-1.176392479E+01+
*       3.0000000000E+01               0
GRID*               8094               01.9960334958E+01-1.643813385E+01+
*       3.0000000000E+01               0
GRID*               8095               01.5960059941E+01-2.034466520E+01+
*       3.0000000000E+01               0
GRID*               8096               01.1147556022E+01-2.316333442E+01+
*       3.0000000000E+01               0
GRID*               8097               05.9063819328E+00-2.501847949E+01+
*       3.0000000000E+01               0
GRID*               8098               03.8891833523E-01-2.570320882E+01+
*       3.0000000000E+01               0
GRID*               8099               0-5.146379454E+00-2.518587025E+01+
*       3.0000000000E+01               0
GRID*               8100               0-1.050058312E+01-2.362978759E+01+
*       3.0000000000E+01               0
GRID*               8101               0-1.533501871E+01-2.081984560E+01+
*       3.0000000000E+01               0
GRID*               8102               0-1.933781359E+01-1.693692636E+01+
*       3.0000000000E+01               0
GRID*               8103               0-2.265942001E+01-1.245712090E+01+
*       3.0000000000E+01               0
GRID*               8104               0-2.480771936E+01-7.294009076E+00+
*       3.0000000000E+01               0
GRID*               8105               0-2.579582211E+01-1.789927174E+00+
*       3.0000000000E+01               0
GRID*               8106               0-2.542781696E+013.7740792413E+00+
*       3.0000000000E+01               0
GRID*               8107               0-2.416373335E+019.2055707506E+00+
*       3.0000000000E+01               0
GRID*               8108               0-2.149362609E+011.4101029319E+01+
*       3.0000000000E+01               0
GRID*               8109               0-1.796019745E+011.8391399525E+01+
*       3.0000000000E+01               0
GRID*               8110               0-1.366752339E+012.1950578640E+01+
*       3.0000000000E+01               0
GRID*               8111               0-8.577355192E+002.4233066963E+01+
*       3.0000000000E+01               0
GRID*               8112               0-3.185175216E+002.5660868788E+01+
*       3.0000000000E+01               0
GRID*               8113               02.4073385456E+002.5745548854E+01+
*       3.0000000000E+01               0
GRID*               8114               07.8387611934E+002.4482060652E+01+
*       3.0000000000E+01               0
GRID*               8115               01.2994016993E+012.2355827339E+01+
*       3.0000000000E+01               0
GRID*               8116               01.7393155932E+011.8928654364E+01+
*       3.0000000000E+01               0
GRID*               8117               02.1180068482E+011.4833518756E+01+
*       3.0000000000E+01               0
GRID*               7599               01.3858052588E+015.7401955401E+00+
*       -1.000000000E+01               0
GRID*               7600               01.0606583008E+011.0606579186E+01+
*       -1.000000000E+01               0
GRID*               7601               05.7402032984E+001.3858088793E+01+
*       -1.000000000E+01               0
GRID*               7602               05.0391948591E-061.4999912417E+01+
*       -1.000000000E+01               0
GRID*               7603               0-5.740232979E+001.3858138128E+01+
*       -1.000000000E+01               0
GRID*               7604               0-1.060650181E+011.0606507210E+01+
*       -1.000000000E+01               0
GRID*               7605               0-1.385818579E+015.7402473662E+00+
*       -1.000000000E+01               0
GRID*               7606               0-1.499984416E+017.1054273576E-15+
*       -1.000000000E+01               0
GRID*               7607               0-1.385818579E+01-5.740247366E+00+
*       -1.000000000E+01               0
GRID*               7608               0-1.060650181E+01-1.060650721E+01+
*       -1.000000000E+01               0
GRID*               7609               0-5.740232979E+00-1.385813813E+01+
*       -1.000000000E+01               0
GRID*               7610               05.0391948547E-06-1.499991242E+01+
*       -1.000000000E+01               0
GRID*               7611               05.7402032984E+00-1.385808879E+01+
*       -1.000000000E+01               0
GRID*               7612               01.0606583008E+01-1.060657919E+01+
*       -1.000000000E+01               0
GRID*               7613               01.3858052588E+01-5.740195540E+00+
*       -1.000000000E+01               0
GRID*               7614               0-1.247200604E+01-8.333532145E+00+
*       -1.000000000E+01               0
GRID*               7615               0-8.333474990E+00-1.247192171E+01+
*       -1.000000000E+01               0
GRID*               7616               0-1.471168040E+01-2.926330147E+00+
*       -1.000000000E+01               0
GRID*               7617               0-1.471168040E+012.9263301469E+00+
*       -1.000000000E+01               0
GRID*               7618               0-2.926353924E+001.4711777503E+01+
*       -1.000000000E+01               0
GRID*               7619               02.9263259041E+001.4711627455E+01+
*       -1.000000000E+01               0
GRID*               7620               0-8.333474990E+001.2471921711E+01+
*       -1.000000000E+01               0
GRID*               7621               0-1.247200604E+018.3335321447E+00+
*       -1.000000000E+01               0
GRID*               7622               0-2.926353924E+00-1.471177750E+01+
*       -1.000000000E+01               0
GRID*               7623               02.9263259041E+00-1.471162746E+01+
*       -1.000000000E+01               0
GRID*               7624               01.2471941074E+01-8.333479444E+00+
*       -1.000000000E+01               0
GRID*               7625               08.3335421645E+00-1.247203036E+01+
*       -1.000000000E+01               0
GRID*               7626               08.3335421645E+001.2472030361E+01+
*       -1.000000000E+01               0
GRID*               7627               01.2471941074E+018.3334794439E+00+
*       -1.000000000E+01               0
GRID*               7628               01.4711707120E+01-2.926345199E+00+
*       -1.000000000E+01               0
GRID*               7629               01.4711707120E+012.9263451991E+00+
*       -1.000000000E+01               0
GRID*               7630               01.3858052588E+015.7401955401E+00+
*       3.0000000000E+01               0
GRID*               7631               01.0606583008E+011.0606579186E+01+
*       3.0000000000E+01               0
GRID*               7632               05.7402032984E+001.3858088793E+01+
*       3.0000000000E+01               0
GRID*               7633               05.0391948591E-061.4999912417E+01+
*       3.0000000000E+01               0
GRID*               7634               0-5.740232979E+001.3858138128E+01+
*       3.0000000000E+01               0
GRID*               7635               0-1.060650181E+011.0606507210E+01+
*       3.0000000000E+01               0
GRID*               7636               0-1.385818579E+015.7402473662E+00+
*       3.0000000000E+01               0
GRID*               7637               0-1.499984416E+017.1054273576E-15+
*       3.0000000000E+01               0
GRID*               7638               0-1.385818579E+01-5.740247366E+00+
*       3.0000000000E+01               0
GRID*               7639               0-1.060650181E+01-1.060650721E+01+
*       3.0000000000E+01               0
GRID*               7640               0-5.740232979E+00-1.385813813E+01+
*       3.0000000000E+01               0
GRID*               7641               05.0391948547E-06-1.499991242E+01+
*       3.0000000000E+01               0
GRID*               7642               05.7402032984E+00-1.385808879E+01+
*       3.0000000000E+01               0
GRID*               7643               01.0606583008E+01-1.060657919E+01+
*       3.0000000000E+01               0
GRID*               7644               01.3858052588E+01-5.740195540E+00+
*       3.0000000000E+01               0
GRID*               7645               01.4711707120E+012.9263451991E+00+
*       3.0000000000E+01               0
GRID*               7646               01.4711707120E+01-2.926345199E+00+
*       3.0000000000E+01               0
GRID*               7647               08.3335421645E+00-1.247203036E+01+
*       3.0000000000E+01               0
GRID*               7648               01.2471941074E+01-8.333479444E+00+
*       3.0000000000E+01               0
GRID*               7649               0-8.333474990E+00-1.247192171E+01+
*       3.0000000000E+01               0
GRID*               7650               0-1.247200604E+01-8.333532145E+00+
*       3.0000000000E+01               0
GRID*               7651               02.9263259041E+00-1.471162746E+01+
*       3.0000000000E+01               0
GRID*               7652               0-2.926353924E+00-1.471177750E+01+
*       3.0000000000E+01               0
GRID*               7653               01.2471941074E+018.3334794439E+00+
*       3.0000000000E+01               0
GRID*               7654               08.3335421645E+001.2472030361E+01+
*       3.0000000000E+01               0
GRID*               7655               0-2.926353924E+001.4711777503E+01+
*       3.0000000000E+01               0
GRID*               7656               02.9263259041E+001.4711627455E+01+
*       3.0000000000E+01               0
GRID*               7657               0-1.471168040E+012.9263301469E+00+
*       3.0000000000E+01               0
GRID*               7658               0-1.471168040E+01-2.926330147E+00+
*       3.0000000000E+01               0
GRID*               7659               0-8.333474990E+001.2471921711E+01+
*       3.0000000000E+01               0
GRID*               7660               0-1.247200604E+018.3335321447E+00+
*       3.0000000000E+01               0
GRID*               8140               02.9055080457E+01-5.342637185E+01+
*       0.0000000000E+00               0
GRID*               8141               02.3258154272E+01-5.187483236E+01+
*       0.0000000000E+00               0
GRID*               8142               02.1704444976E+01-4.607848324E+01+
*       0.0000000000E+00               0
GRID*               8143               02.5944919705E+01-4.183642311E+01+
*       0.0000000000E+00               0
GRID*               8144               03.1741846562E+01-4.338796106E+01+
*       0.0000000000E+00               0
GRID*               8145               03.1743435196E+01-5.187324289E+01+
*       0.0000000000E+00               0
GRID*               8146               02.5947086205E+01-5.342695233E+01+
*       0.0000000000E+00               0
GRID*               8147               02.1705025832E+01-4.918647741E+01+
*       0.0000000000E+00               0
GRID*               8148               02.3256563969E+01-4.338955053E+01+
*       0.0000000000E+00               0
GRID*               8149               02.9052913953E+01-4.183584170E+01+
*       0.0000000000E+00               0
GRID*               8150               03.3294974077E+01-4.607631674E+01+
*       0.0000000000E+00               0
GRID*               7744               02.9055080457E+01-5.342637185E+01+
*       2.0000000000E+01               0
GRID*               7745               02.3258154272E+01-5.187483236E+01+
*       2.0000000000E+01               0
GRID*               7746               02.1704444976E+01-4.607848324E+01+
*       2.0000000000E+01               0
GRID*               7747               02.5944919705E+01-4.183642311E+01+
*       2.0000000000E+01               0
GRID*               7748               03.1741846562E+01-4.338796106E+01+
*       2.0000000000E+01               0
GRID*               7749               02.9052913953E+01-4.183584170E+01+
*       2.0000000000E+01               0
GRID*               7750               02.3256563969E+01-4.338955053E+01+
*       2.0000000000E+01               0
GRID*               7751               02.1705025832E+01-4.918647741E+01+
*       2.0000000000E+01               0
GRID*               7752               03.3294974077E+01-4.607631674E+01+
*       2.0000000000E+01               0
GRID*               7753               02.5947086205E+01-5.342695233E+01+
*       2.0000000000E+01               0
GRID*               7754               03.1743435196E+01-5.187324289E+01+
*       2.0000000000E+01               0
GRID*               8151               02.9055080797E+014.1836422737E+01+
*       0.0000000000E+00               0
GRID*               8152               02.3258153687E+014.3387960812E+01+
*       0.0000000000E+00               0
GRID*               8153               02.1704444794E+014.9184310572E+01+
*       0.0000000000E+00               0
GRID*               8154               02.5944919365E+015.3426371289E+01+
*       0.0000000000E+00               0
GRID*               8155               03.1741845479E+015.1874832610E+01+
*       0.0000000000E+00               0
GRID*               8156               03.1743436280E+014.3389550780E+01+
*       0.0000000000E+00               0
GRID*               8157               02.5947086546E+014.1835842076E+01+
*       0.0000000000E+00               0
GRID*               8158               02.1705026014E+014.6076316401E+01+
*       0.0000000000E+00               0
GRID*               8159               02.3256564554E+015.1873242642E+01+
*       0.0000000000E+00               0
GRID*               8160               02.9052913612E+015.3426952888E+01+
*       0.0000000000E+00               0
GRID*               8161               03.3294974077E+014.9186477753E+01+
*       0.0000000000E+00               0
GRID*               7812               03.1741845479E+015.1874832610E+01+
*       2.0000000000E+01               0
GRID*               7813               02.5944919365E+015.3426371289E+01+
*       2.0000000000E+01               0
GRID*               7814               02.1704444794E+014.9184310572E+01+
*       2.0000000000E+01               0
GRID*               7815               02.3258153687E+014.3387960812E+01+
*       2.0000000000E+01               0
GRID*               7816               02.9055080797E+014.1836422737E+01+
*       2.0000000000E+01               0
GRID*               7817               02.9052913612E+015.3426952888E+01+
*       2.0000000000E+01               0
GRID*               7818               03.3294974077E+014.9186477753E+01+
*       2.0000000000E+01               0
GRID*               7819               02.5947086546E+014.1835842076E+01+
*       2.0000000000E+01               0
GRID*               7820               02.3256564554E+015.1873242642E+01+
*       2.0000000000E+01               0
GRID*               7821               02.1705026014E+014.6076316401E+01+
*       2.0000000000E+01               0
GRID*               7822               03.1743436280E+014.3389550780E+01+
*       2.0000000000E+01               0
GRID*               7955               09.1902072106E+00-2.324951143E+01+
*       -1.000000000E+01               0
GRID*               7956               03.5798076433E+00-2.474236577E+01+
*       -1.000000000E+01               0
GRID*               7957               0-2.222393439E+00-2.490098102E+01+
*       -1.000000000E+01               0
GRID*               7958               0-7.904176824E+00-2.371758153E+01+
*       -1.000000000E+01               0
GRID*               7959               0-1.316113034E+01-2.125522619E+01+
*       -1.000000000E+01               0
GRID*               7960               0-1.770683551E+01-1.764845526E+01+
*       -1.000000000E+01               0
GRID*               7961               0-2.129923772E+01-1.308978098E+01+
*       -1.000000000E+01               0
GRID*               7962               0-2.374361770E+01-7.825566970E+00+
*       -1.000000000E+01               0
GRID*               7963               0-2.490817695E+01-2.140565772E+00+
*       -1.000000000E+01               0
GRID*               7964               0-2.473048257E+013.6610364102E+00+
*       -1.000000000E+01               0
GRID*               7965               0-2.321848681E+019.2683207893E+00+
*       -1.000000000E+01               0
GRID*               7966               0-2.045567786E+011.4372352366E+01+
*       -1.000000000E+01               0
GRID*               7967               0-1.658828870E+011.8703694325E+01+
*       -1.000000000E+01               0
GRID*               7968               0-1.182757818E+012.2025111833E+01+
*       -1.000000000E+01               0
GRID*               7969               0-6.429711202E+002.4159027748E+01+
*       -1.000000000E+01               0
GRID*               7970               0-6.838339043E-012.4990646098E+01+
*       -1.000000000E+01               0
GRID*               7971               05.0960287783E+002.4475097941E+01+
*       -1.000000000E+01               0
GRID*               7972               01.0603103097E+012.2640097205E+01+
*       -1.000000000E+01               0
GRID*               7973               01.5538018773E+011.9584903001E+01+
*       -1.000000000E+01               0
GRID*               7974               01.9634948552E+011.5474765047E+01+
*       -1.000000000E+01               0
GRID*               7975               02.2674396362E+011.0529564317E+01+
*       -1.000000000E+01               0
GRID*               7976               02.4491159855E+015.0182750147E+00+
*       -1.000000000E+01               0
GRID*               7977               02.4988269050E+01-7.649167152E-01+
*       -1.000000000E+01               0
GRID*               7978               02.4137477114E+01-6.510113912E+00+
*       -1.000000000E+01               0
GRID*               7979               02.1985033437E+01-1.190187405E+01+
*       -1.000000000E+01               0
GRID*               7980               01.8647333595E+01-1.665163287E+01+
*       -1.000000000E+01               0
GRID*               7981               01.6587871427E+01-1.870401063E+01+
*       -1.000000000E+01               0
GRID*               7982               02.0454048780E+01-1.437468749E+01+
*       -1.000000000E+01               0
GRID*               7983               02.3218797743E+01-9.267546242E+00+
*       -1.000000000E+01               0
GRID*               7984               02.4562873082E+01-3.637515314E+00+
*       -1.000000000E+01               0
GRID*               7985               02.4908145861E+012.1410250631E+00+
*       -1.000000000E+01               0
GRID*               7986               02.3743027020E+017.8274328983E+00+
*       -1.000000000E+01               0
GRID*               7987               02.1154672457E+011.3002164682E+01+
*       -1.000000000E+01               0
GRID*               7988               01.7706373223E+011.7648919125E+01+
*       -1.000000000E+01               0
GRID*               7989               01.3070560935E+012.1112500103E+01+
*       -1.000000000E+01               0
GRID*               7990               07.9038267008E+002.3717687763E+01+
*       -1.000000000E+01               0
GRID*               7991               02.2208785258E+002.4901157925E+01+
*       -1.000000000E+01               0
GRID*               7992               0-3.581536924E+002.4742086271E+01+
*       -1.000000000E+01               0
GRID*               7993               0-9.190190361E+002.3249522752E+01+
*       -1.000000000E+01               0
GRID*               7994               0-1.420793344E+012.0364403079E+01+
*       -1.000000000E+01               0
GRID*               7995               0-1.864755272E+011.6651339817E+01+
*       -1.000000000E+01               0
GRID*               7996               0-2.198564855E+011.1900888598E+01+
*       -1.000000000E+01               0
GRID*               7997               0-2.397448469E+016.4646785997E+00+
*       -1.000000000E+01               0
GRID*               7998               0-2.481932976E+017.6023531930E-01+
*       -1.000000000E+01               0
GRID*               7999               0-2.449145901E+01-5.016816496E+00+
*       -1.000000000E+01               0
GRID*               8000               0-2.267457673E+01-1.052915143E+01+
*       -1.000000000E+01               0
GRID*               8001               0-1.963626048E+01-1.547309893E+01+
*       -1.000000000E+01               0
GRID*               8002               0-1.543398292E+01-1.945184072E+01+
*       -1.000000000E+01               0
GRID*               8003               0-1.053265358E+01-2.248640386E+01+
*       -1.000000000E+01               0
GRID*               8004               0-5.098198599E+00-2.447464732E+01+
*       -1.000000000E+01               0
GRID*               8005               06.8406811895E-01-2.499063550E+01+
*       -1.000000000E+01               0
GRID*               8006               06.3850074269E+00-2.399593860E+01+
*       -1.000000000E+01               0
GRID*               8007               01.1746561869E+01-2.187690911E+01+
*       -1.000000000E+01               0
GRID*               8008               01.2620020796E+01-3.705187392E+01+
*       0.0000000000E+00               0
GRID*               8009               03.7369776909E+00-3.896328394E+01+
*       0.0000000000E+00               0
GRID*               8010               0-5.352040110E+00-3.877449727E+01+
*       0.0000000000E+00               0
GRID*               8011               0-1.414800761E+01-3.649570623E+01+
*       0.0000000000E+00               0
GRID*               8012               0-2.218230427E+01-3.224983784E+01+
*       0.0000000000E+00               0
GRID*               8013               0-2.902294625E+01-2.626350596E+01+
*       0.0000000000E+00               0
GRID*               8014               0-3.429694590E+01-1.886334356E+01+
*       0.0000000000E+00               0
GRID*               8015               0-3.772284073E+01-1.044478259E+01+
*       0.0000000000E+00               0
GRID*               8016               0-3.911469841E+01-1.464452699E+00+
*       0.0000000000E+00               0
GRID*               8017               0-3.839782184E+017.5969646498E+00+
*       0.0000000000E+00               0
GRID*               8018               0-3.561105121E+011.6246741103E+01+
*       0.0000000000E+00               0
GRID*               8019               0-3.090556971E+012.4019794563E+01+
*       0.0000000000E+00               0
GRID*               8020               0-2.453100060E+013.0501365085E+01+
*       0.0000000000E+00               0
GRID*               8021               0-1.683738654E+013.5335640877E+01+
*       0.0000000000E+00               0
GRID*               8022               0-8.234663273E+003.8266133216E+01+
*       0.0000000000E+00               0
GRID*               8023               08.1302920940E-013.9133677985E+01+
*       0.0000000000E+00               0
GRID*               8024               09.8157235370E+003.7891395462E+01+
*       0.0000000000E+00               0
GRID*               8025               01.8290118883E+013.4606040380E+01+
*       0.0000000000E+00               0
GRID*               8026               02.5776653526E+012.9456176193E+01+
*       0.0000000000E+00               0
GRID*               8027               03.1876372971E+012.2715713500E+01+
*       0.0000000000E+00               0
GRID*               8028               03.6255088053E+011.4753661355E+01+
*       0.0000000000E+00               0
GRID*               8029               03.8680028162E+015.9968567611E+00+
*       0.0000000000E+00               0
GRID*               8030               03.9020094499E+01-3.087757988E+00+
*       0.0000000000E+00               0
GRID*               8031               03.7256834377E+01-1.200146188E+01+
*       0.0000000000E+00               0
GRID*               8032               03.3484477333E+01-2.027057758E+01+
*       0.0000000000E+00               0
GRID*               8033               02.7907119550E+01-2.744629783E+01+
*       0.0000000000E+00               0
GRID*               8034               02.4365995306E+01-3.029444561E+01+
*       0.0000000000E+00               0
GRID*               8035               03.0905569707E+01-2.401979456E+01+
*       0.0000000000E+00               0
GRID*               8036               03.5370655855E+01-1.613601973E+01+
*       0.0000000000E+00               0
GRID*               8037               03.8138464438E+01-7.544609936E+00+
*       0.0000000000E+00               0
GRID*               8038               03.8850061331E+011.4545493867E+00+
*       0.0000000000E+00               0
GRID*               8039               03.7467558108E+011.0375259058E+01+
*       0.0000000000E+00               0
GRID*               8040               03.4296945903E+011.8863343560E+01+
*       0.0000000000E+00               0
GRID*               8041               02.9022946253E+012.6263505956E+01+
*       0.0000000000E+00               0
GRID*               8042               02.2182304270E+013.2249837840E+01+
*       0.0000000000E+00               0
GRID*               8043               01.4052921210E+013.6248717921E+01+
*       0.0000000000E+00               0
GRID*               8044               05.3520401103E+003.8774497269E+01+
*       0.0000000000E+00               0
GRID*               8045               0-3.710817032E+003.8699905600E+01+
*       0.0000000000E+00               0
GRID*               8046               0-1.262002080E+013.7051873923E+01+
*       0.0000000000E+00               0
GRID*               8047               0-2.082487106E+013.3142593384E+01+
*       0.0000000000E+00               0
GRID*               8048               0-2.790711955E+012.7446297828E+01+
*       0.0000000000E+00               0
GRID*               8049               0-3.348447733E+012.0270577575E+01+
*       0.0000000000E+00               0
GRID*               8050               0-3.725683438E+011.2001461885E+01+
*       0.0000000000E+00               0
GRID*               8051               0-3.902009450E+013.0877579877E+00+
*       0.0000000000E+00               0
GRID*               8052               0-3.868002816E+01-5.996856761E+00+
*       0.0000000000E+00               0
GRID*               8053               0-3.625508805E+01-1.475366135E+01+
*       0.0000000000E+00               0
GRID*               8054               0-3.187637297E+01-2.271571350E+01+
*       0.0000000000E+00               0
GRID*               8055               0-2.560262526E+01-2.925667190E+01+
*       0.0000000000E+00               0
GRID*               8056               0-1.829011888E+01-3.460604038E+01+
*       0.0000000000E+00               0
GRID*               8057               0-9.815723537E+00-3.789139546E+01+
*       0.0000000000E+00               0
GRID*               8058               0-8.130292094E-01-3.913367798E+01+
*       0.0000000000E+00               0
GRID*               8059               08.1784992436E+00-3.800757893E+01+
*       0.0000000000E+00               0
GRID*               8060               01.6837386536E+01-3.533564088E+01+
*       0.0000000000E+00               0
GRID*               8162               05.9760402974E+013.6520782139E+00+
*       0.0000000000E+00               0
GRID*               8163               05.4216295097E+015.9485230147E+00+
*       0.0000000000E+00               0
GRID*               8164               04.9456722260E+012.2961003780E+00+
*       0.0000000000E+00               0
GRID*               8165               05.0239596551E+01-3.652078358E+00+
*       0.0000000000E+00               0
GRID*               8166               05.5783704732E+01-5.948523037E+00+
*       0.0000000000E+00               0
GRID*               8167               05.1347921521E+014.7604034395E+00+
*       0.0000000000E+00               0
GRID*               8168               05.7296100211E+015.5432774317E+00+
*       0.0000000000E+00               0
GRID*               8169               06.0948523084E+017.8370482420E-01+
*       0.0000000000E+00               0
GRID*               8170               04.9051476916E+01-7.837048242E-01+
*       0.0000000000E+00               0
GRID*               8171               05.8652078342E+01-4.760403545E+00+
*       0.0000000000E+00               0
GRID*               8172               05.2703899630E+01-5.543277366E+00+
*       0.0000000000E+00               0
GRID*               7834               05.5783704732E+01-5.948523037E+00+
*       2.0000000000E+01               0
GRID*               7835               05.0239596551E+01-3.652078358E+00+
*       2.0000000000E+01               0
GRID*               7836               04.9456722260E+012.2961003780E+00+
*       2.0000000000E+01               0
GRID*               7837               05.4216295097E+015.9485230147E+00+
*       2.0000000000E+01               0
GRID*               7838               05.9760402974E+013.6520782139E+00+
*       2.0000000000E+01               0
GRID*               7839               04.9051476916E+01-7.837048242E-01+
*       2.0000000000E+01               0
GRID*               7840               05.2703899630E+01-5.543277366E+00+
*       2.0000000000E+01               0
GRID*               7841               05.8652078342E+01-4.760403545E+00+
*       2.0000000000E+01               0
GRID*               7842               05.1347921521E+014.7604034395E+00+
*       2.0000000000E+01               0
GRID*               7843               06.0948523084E+017.8370482420E-01+
*       2.0000000000E+01               0
GRID*               7844               05.7296100211E+015.5432774317E+00+
*       2.0000000000E+01               0
GRID*               7054               08.6929637887E+019.9743364547E+00+
*       9.9999855344E+00               0
GRID*               7055               08.5225975162E+011.9818699327E+01+
*       9.9999505544E+00               0
GRID*               7056               08.2411219483E+012.9404705701E+01+
*       9.9999085279E+00               0
GRID*               7057               07.8522086223E+013.8607341002E+01+
*       9.9998745261E+00               0
GRID*               7058               07.3609310554E+014.7306589191E+01+
*       9.9998661076E+00               0
GRID*               7059               06.7737009692E+015.5389006510E+01+
*       9.9999049385E+00               0
GRID*               7060               06.0981830946E+016.2749194280E+01+
*       1.0000018118E+01               0
GRID*               7061               05.3431654685E+016.9291435796E+01+
*       1.0000110653E+01               0
GRID*               7062               04.5184771284E+017.4930510738E+01+
*       1.0000135276E+01               0
GRID*               7063               03.6348723851E+017.9592811837E+01+
*       1.0000118602E+01               0
GRID*               7064               02.7038745925E+018.3217504022E+01+
*       1.0000081058E+01               0
GRID*               7065               01.7376252352E+018.5757299268E+01+
*       1.0000039458E+01               0
GRID*               7066               07.4872552576E+008.7179075367E+01+
*       1.0000008407E+01               0
GRID*               7067               0-2.496809331E+008.7464372430E+01+
*       9.9999990213E+00               0
GRID*               7068               0-1.245082763E+018.6609620338E+01+
*       9.9999782898E+00               0
GRID*               7069               0-2.224257566E+018.4625734416E+01+
*       9.9999402636E+00               0
GRID*               7070               0-3.174435743E+018.1538587540E+01+
*       9.9998987454E+00               0
GRID*               7071               0-4.083225672E+017.7388447157E+01+
*       9.9998693076E+00               0
GRID*               7072               0-4.938775412E+017.2229459090E+01+
*       9.9998703414E+00               0
GRID*               7073               0-5.729927545E+016.6128947731E+01+
*       9.9999249265E+00               0
GRID*               7074               0-6.446368791E+015.9166524173E+01+
*       1.0000049108E+01               0
GRID*               7075               0-7.078786602E+015.1432698504E+01+
*       1.0000121886E+01               0
GRID*               7076               0-7.618934002E+014.3028229990E+01+
*       1.0000134121E+01               0
GRID*               7077               0-8.059761642E+013.4062722998E+01+
*       1.0000110562E+01               0
GRID*               7078               0-8.395517798E+012.4653099262E+01+
*       1.0000070551E+01               0
GRID*               7079               0-8.621821173E+011.4922069659E+01+
*       1.0000030270E+01               0
GRID*               7080               0-8.735722101E+014.9965426785E+00+
*       1.0000003899E+01               0
GRID*               7081               0-8.735736257E+01-4.994067410E+00+
*       9.9999961543E+00               0
GRID*               7082               0-8.621863458E+01-1.491962644E+01+
*       9.9999698559E+00               0
GRID*               7083               0-8.395587661E+01-2.465072010E+01+
*       9.9999295982E+00               0
GRID*               7084               0-8.059858166E+01-3.406043907E+01+
*       9.9998895556E+00               0
GRID*               7085               0-7.619055917E+01-4.302607122E+01+
*       9.9998659002E+00               0
GRID*               7086               0-7.078932297E+01-5.143069320E+01+
*       9.9998779600E+00               0
GRID*               7087               0-6.446536337E+01-5.916469865E+01+
*       9.9999504578E+00               0
GRID*               7088               0-5.730114828E+01-6.612732493E+01+
*       1.0000074723E+01               0
GRID*               7089               0-4.938980035E+01-7.222805991E+01+
*       1.0000129559E+01               0
GRID*               7090               0-4.083444951E+01-7.738729013E+01+
*       1.0000130746E+01               0
GRID*               7091               0-3.174666804E+01-8.153768791E+01+
*       1.0000101387E+01               0
GRID*               7092               0-2.224497380E+01-8.462510403E+01+
*       1.0000059886E+01               0
GRID*               7093               0-1.245328189E+01-8.660926745E+01+
*       1.0000021824E+01               0
GRID*               7094               0-2.499287554E+00-8.746430164E+01+
*       1.0000001007E+01               0
GRID*               7095               07.4872552594E+00-8.717907537E+01+
*       9.9999915923E+00               0
GRID*               7096               01.7376252356E+01-8.575729927E+01+
*       9.9999605397E+00               0
GRID*               7097               02.7038745931E+01-8.321750402E+01+
*       9.9999189393E+00               0
GRID*               7098               03.6348723857E+01-7.959281183E+01+
*       9.9998813942E+00               0
GRID*               7099               04.5184771290E+01-7.493051073E+01+
*       9.9998647199E+00               0
GRID*               7100               05.3431654691E+01-6.929143579E+01+
*       9.9998893426E+00               0
GRID*               7101               06.0981830951E+01-6.274919428E+01+
*       9.9999818774E+00               0
GRID*               7102               06.7737009695E+01-5.538900651E+01+
*       1.0000095058E+01               0
GRID*               7103               07.3609310556E+01-4.730658919E+01+
*       1.0000133890E+01               0
GRID*               7104               07.8522086224E+01-3.860734100E+01+
*       1.0000125473E+01               0
GRID*               7105               08.2411219483E+01-2.940470570E+01+
*       1.0000091472E+01               0
GRID*               7106               08.5225975162E+01-1.981869933E+01+
*       1.0000049445E+01               0
GRID*               7107               08.6929637887E+01-9.974336455E+00+
*       1.0000014466E+01               0
GRID*               7108               08.7357276730E+014.9950988860E+00+
*       1.0000062809E+01               0
GRID*               7109               08.7357283198E+014.9949773927E+00+
*       1.5000102309E+01               0
GRID*               7110               08.6929634060E+019.9743601999E+00+
*       1.4999977721E+01               0
GRID*               7111               08.7357248196E+014.9956348990E+00+
*       4.9998885068E+00               0
GRID*               7112               08.6929642776E+019.9743061257E+00+
*       4.9999955116E+00               0
GRID*               7113               08.6218371033E+011.4921075965E+01+
*       4.9998942650E+00               0
GRID*               7114               08.5226001777E+011.9818601884E+01+
*       4.9999833614E+00               0
GRID*               7115               08.6218484708E+011.4920370738E+01+
*       1.0000126228E+01               0
GRID*               7116               08.3955520604E+012.4651919986E+01+
*       4.9999262623E+00               0
GRID*               7117               08.2411283451E+012.9404541943E+01+
*       4.9999656205E+00               0
GRID*               7118               08.3955688083E+012.4651306815E+01+
*       1.0000132671E+01               0
GRID*               7119               08.0598250017E+013.4061254637E+01+
*       5.0000068464E+00               0
GRID*               7120               07.8522185808E+013.8607149609E+01+
*       4.9999445821E+00               0
GRID*               7121               08.0598361137E+013.4060970172E+01+
*       1.0000106020E+01               0
GRID*               7122               07.6190250431E+014.3026648964E+01+
*       5.0000561784E+00               0
GRID*               7123               07.3609407166E+014.7306443584E+01+
*       4.9999228723E+00               0
GRID*               7124               07.6190263157E+014.3026624506E+01+
*       1.0000065130E+01               0
GRID*               7125               07.0788895626E+015.1431314925E+01+
*       5.0000358538E+00               0
GRID*               7126               06.7737006914E+015.5389009869E+01+
*       4.9999035428E+00               0
GRID*               7127               07.0788878619E+015.1431340557E+01+
*       1.0000025858E+01               0
GRID*               7128               06.4464659824E+015.9165512519E+01+
*       5.0000038897E+00               0
GRID*               7129               06.0981549504E+016.2749468089E+01+
*       4.9998906128E+00               0
GRID*               7130               06.4464656527E+015.9165516505E+01+
*       1.0000002208E+01               0
GRID*               7131               05.7300053823E+016.6128312578E+01+
*       4.9999981974E+00               0
GRID*               7132               05.3431119725E+016.9291855867E+01+
*       4.9998897778E+00               0
GRID*               7133               05.7300043757E+016.6128320482E+01+
*       9.9999940386E+00               0
GRID*               7134               04.9388433860E+017.2229022728E+01+
*       4.9999886735E+00               0
GRID*               7135               04.5184183637E+017.4930878618E+01+
*       4.9999101389E+00               0
GRID*               7136               04.9388372660E+017.2229061041E+01+
*       9.9999652254E+00               0
GRID*               7137               04.0832933128E+017.7388109870E+01+
*       4.9999727686E+00               0
GRID*               7138               03.6348308954E+017.9593013403E+01+
*       4.9999688113E+00               0
GRID*               7139               04.0832798519E+017.7388175266E+01+
*       9.9999241731E+00               0
GRID*               7140               03.1745090727E+018.1538307761E+01+
*       4.9999526826E+00               0
GRID*               7141               02.7038653498E+018.3217537372E+01+
*       5.0000491399E+00               0
GRID*               7142               03.1744895431E+018.1538378228E+01+
*       9.9998852682E+00               0
GRID*               7143               02.2243391375E+018.4625510894E+01+
*       4.9999308884E+00               0
GRID*               7144               01.7376277401E+018.5757293145E+01+
*       5.0000478316E+00               0
GRID*               7145               02.2243194267E+018.4625559078E+01+
*       9.9998649980E+00               0
GRID*               7146               01.2451713839E+018.6609468478E+01+
*       4.9999102522E+00               0
GRID*               7147               07.4872715111E+008.7179073187E+01+
*       5.0000137299E+00               0
GRID*               7148               01.2451631375E+018.6609479540E+01+
*       9.9998832300E+00               0
GRID*               7149               02.4990749208E+008.7464297102E+01+
*       4.9999720048E+00               0
GRID*               7150               0-2.496807216E+008.7464372599E+01+
*       4.9999997103E+00               0
GRID*               7151               02.4991534471E+008.7464294095E+01+
*       9.9999499484E+00               0
GRID*               7152               0-7.486334764E+008.7179129746E+01+
*       4.9998881947E+00               0
GRID*               7153               0-1.245078271E+018.6609628845E+01+
*       4.9999931354E+00               0
GRID*               7154               0-7.485729534E+008.7179178195E+01+
*       1.0000085357E+01               0
GRID*               7155               0-1.737522026E+018.5757494988E+01+
*       4.9998991241E+00               0
GRID*               7156               0-2.224246027E+018.4625769234E+01+
*       4.9999794041E+00               0
GRID*               7157               0-1.737451540E+018.5757628482E+01+
*       1.0000132077E+01               0
GRID*               7158               0-2.703750505E+018.3217906931E+01+
*       4.9999404041E+00               0
GRID*               7159               0-3.174418183E+018.1538661579E+01+
*       4.9999606445E+00               0
GRID*               7160               0-2.703695091E+018.3218074146E+01+
*       1.0000128358E+01               0
GRID*               7161               0-3.634718797E+017.9593522537E+01+
*       5.0000288871E+00               0
GRID*               7162               0-4.083206846E+017.7388551261E+01+
*       4.9999391814E+00               0
GRID*               7163               0-3.634699589E+017.9593603523E+01+
*       1.0000096570E+01               0
GRID*               7164               0-4.518321734E+017.4931467897E+01+
*       5.0000553039E+00               0
GRID*               7165               0-4.938763478E+017.2229542961E+01+
*       4.9999177155E+00               0
GRID*               7166               0-4.518321896E+017.4931467001E+01+
*       1.0000054693E+01               0
GRID*               7167               0-5.343035337E+016.9292471001E+01+
*       5.0000268915E+00               0
GRID*               7168               0-5.729933424E+016.6128896226E+01+
*       4.9998995416E+00               0
GRID*               7169               0-5.343037565E+016.9292455341E+01+
*       1.0000018044E+01               0
GRID*               7170               0-6.098091837E+016.2750116753E+01+
*       5.0000004881E+00               0
GRID*               7171               0-6.446402257E+015.9166162098E+01+
*       4.9998890076E+00               0
GRID*               7172               0-6.098091888E+016.2750116300E+01+
*       1.0000000259E+01               0
GRID*               7173               0-6.773643957E+015.5389750642E+01+
*       4.9999965550E+00               0
GRID*               7174               0-7.078828732E+015.1432130997E+01+
*       4.9998923739E+00               0
GRID*               7175               0-6.773645383E+015.5389731431E+01+
*       9.9999887776E+00               0
GRID*               7176               0-7.360890706E+014.7307261774E+01+
*       4.9999852600E+00               0
GRID*               7177               0-7.618967439E+014.3027662097E+01+
*       4.9999201155E+00               0
GRID*               7178               0-7.360895327E+014.7307183304E+01+
*       9.9999556814E+00               0
GRID*               7179               0-7.852176095E+013.8608025218E+01+
*       4.9999680972E+00               0
GRID*               7180               0-8.059776621E+013.4062392961E+01+
*       4.9999928599E+00               0
GRID*               7181               0-7.852183012E+013.8607872817E+01+
*       9.9999137525E+00               0
GRID*               7182               0-8.241095039E+012.9405456635E+01+
*       4.9999473578E+00               0
GRID*               7183               0-8.395519304E+012.4653053910E+01+
*       5.0000550303E+00               0
GRID*               7184               0-8.241101788E+012.9405253418E+01+
*       9.9998778208E+00               0
GRID*               7185               0-8.522576666E+011.9819534196E+01+
*       4.9999255491E+00               0
GRID*               7186               0-8.621820526E+011.4922099708E+01+
*       5.0000402454E+00               0
GRID*               7187               0-8.522580588E+011.9819352054E+01+
*       9.9998650473E+00               0
GRID*               7188               0-8.692950626E+019.9752331404E+00+
*       4.9999057302E+00               0
GRID*               7189               0-8.735722010E+014.9965512585E+00+
*       5.0000067021E+00               0
GRID*               7190               0-8.692950929E+019.9752047727E+00+
*       9.9998964568E+00               0
GRID*               7191               0-8.749996893E+019.0615835783E-04+
*       4.9998917486E+00               0
GRID*               7192               0-8.735736345E+01-4.994059170E+00+
*       4.9999988456E+00               0
GRID*               7193               0-8.749996893E+011.2387071712E-03+
*       9.9999997072E+00               0
GRID*               7194               0-8.692972158E+01-9.973398833E+00+
*       4.9998889475E+00               0
GRID*               7195               0-8.621864782E+01-1.491956495E+01+
*       4.9999902799E+00               0
GRID*               7196               0-8.692979181E+01-9.972742504E+00+
*       1.0000103288E+01               0
GRID*               7197               0-8.522621891E+01-1.981762684E+01+
*       4.9999059022E+00               0
GRID*               7198               0-8.395592075E+01-2.465058719E+01+
*       4.9999750761E+00               0
GRID*               7199               0-8.522636737E+01-1.981693741E+01+
*       1.0000134909E+01               0
GRID*               7200               0-8.241169186E+01-2.940339756E+01+
*       4.9999582241E+00               0
GRID*               7201               0-8.059866545E+01-3.406025444E+01+
*       4.9999553823E+00               0
GRID*               7202               0-8.241185107E+01-2.940291816E+01+
*       1.0000122259E+01               0
GRID*               7203               0-7.852287018E+01-3.860576652E+01+
*       5.0000439686E+00               0
GRID*               7204               0-7.619066505E+01-4.302589139E+01+
*       4.9999336640E+00               0
GRID*               7205               0-7.852292415E+01-3.860564760E+01+
*       1.0000086383E+01               0
GRID*               7206               0-7.361030407E+01-4.730507990E+01+
*       5.0000510203E+00               0
GRID*               7207               0-7.078938674E+01-5.143060731E+01+
*       4.9999127202E+00               0
GRID*               7208               0-7.361029381E+01-4.730509732E+01+
*       1.0000044451E+01               0
GRID*               7209               0-6.773803551E+01-5.538779558E+01+
*       5.0000179425E+00               0
GRID*               7210               0-6.446524951E+01-5.916482184E+01+
*       4.9998959925E+00               0
GRID*               7211               0-6.773802333E+01-5.538781199E+01+
*       1.0000011300E+01               0
GRID*               7212               0-6.098269722E+01-6.274838810E+01+
*       4.9999999289E+00               0
GRID*               7213               0-5.730071633E+01-6.612770341E+01+
*       4.9998882234E+00               0
GRID*               7214               0-6.098269681E+01-6.274838846E+01+
*       9.9999997474E+00               0
GRID*               7215               0-5.343237023E+01-6.929091946E+01+
*       4.9999943818E+00               0
GRID*               7216               0-4.938921312E+01-7.222847263E+01+
*       4.9998964841E+00               0
GRID*               7217               0-5.343233918E+01-6.929094128E+01+
*       9.9999820536E+00               0
GRID*               7218               0-4.518543935E+01-7.493013297E+01+
*       4.9999814286E+00               0
GRID*               7219               0-4.083391646E+01-7.738758490E+01+
*       4.9999329431E+00               0
GRID*               7220               0-4.518534241E+01-7.493018658E+01+
*       9.9999454478E+00               0
GRID*               7221               0-3.634942051E+01-7.959250222E+01+
*       4.9999631627E+00               0
GRID*               7222               0-3.174643374E+01-8.153778671E+01+
*       5.0000188190E+00               0
GRID*               7223               0-3.634925142E+01-7.959257351E+01+
*       9.9999035611E+00               0
GRID*               7224               0-2.703951584E+01-8.321724558E+01+
*       4.9999418892E+00               0
GRID*               7225               0-2.224496297E+01-8.462510730E+01+
*       5.0000562103E+00               0
GRID*               7226               0-2.703930895E+01-8.321730801E+01+
*       9.9998717034E+00               0
GRID*               7227               0-1.737710358E+01-8.575710618E+01+
*       4.9999202545E+00               0
GRID*               7228               0-1.245331089E+01-8.660926196E+01+
*       5.0000314042E+00               0
GRID*               7229               0-1.737694497E+01-8.575713621E+01+
*       9.9998678434E+00               0
GRID*               7230               0-7.488159250E+00-8.717896929E+01+
*       4.9999014747E+00               0
GRID*               7231               0-2.499290026E+00-8.746430144E+01+
*       5.0000018119E+00               0
GRID*               7232               0-7.488198666E+00-8.717896614E+01+
*       9.9999143289E+00               0
GRID*               7233               02.4983856221E+00-8.746429924E+01+
*       4.9998896973E+00               0
GRID*               7234               07.4872374320E+00-8.717907776E+01+
*       4.9999974333E+00               0
GRID*               7235               02.4979402999E+00-8.746431107E+01+
*       1.0000034369E+01               0
GRID*               7236               01.2452320709E+01-8.660938707E+01+
*       4.9998909078E+00               0
GRID*               7237               01.7376173167E+01-8.575731863E+01+
*       4.9999870116E+00               0
GRID*               7238               01.2451631387E+01-8.660947954E+01+
*       1.0000116756E+01               0
GRID*               7239               02.2243852867E+01-8.462539808E+01+
*       4.9999148282E+00               0
GRID*               7240               02.7038596665E+01-8.321755788E+01+
*       4.9999704603E+00               0
GRID*               7241               02.2243194274E+01-8.462555908E+01+
*       1.0000134991E+01               0
GRID*               7242               03.1745285021E+01-8.153823766E+01+
*       4.9999802283E+00               0
GRID*               7243               03.6348533722E+01-7.959290421E+01+
*       4.9999500284E+00               0
GRID*               7244               03.1744895435E+01-8.153837823E+01+
*       1.0000114724E+01               0
GRID*               7245               04.0832862450E+01-7.738814421E+01+
*       5.0000527356E+00               0
GRID*               7246               04.5184605554E+01-7.493061449E+01+
*       4.9999282038E+00               0
GRID*               7247               04.0832798520E+01-7.738817527E+01+
*       1.0000075821E+01               0
GRID*               7248               04.9388347949E+01-7.222907651E+01+
*       5.0000442355E+00               0
GRID*               7249               05.3431609615E+01-6.929147119E+01+
*       4.9999079492E+00               0
GRID*               7250               04.9388372659E+01-7.222906104E+01+
*       1.0000034771E+01               0
GRID*               7251               05.7300033984E+01-6.612832816E+01+
*       5.0000099933E+00               0
GRID*               7252               06.0982027168E+01-6.274900338E+01+
*       4.9998929831E+00               0
GRID*               7253               05.7300043755E+01-6.612832048E+01+
*       1.0000005959E+01               0
GRID*               7254               06.4464653481E+01-5.916552019E+01+
*       4.9999993421E+00               0
GRID*               7255               06.7737415241E+01-5.538851625E+01+
*       4.9998884512E+00               0
GRID*               7256               06.4464656525E+01-5.916551651E+01+
*       9.9999977907E+00               0
GRID*               7257               07.0788848639E+01-5.143138574E+01+
*       4.9999917510E+00               0
GRID*               7258               07.3609704819E+01-4.730599498E+01+
*       4.9999023219E+00               0
GRID*               7259               07.0788878618E+01-5.143134056E+01+
*       9.9999741400E+00               0
GRID*               7260               07.6190202921E+01-4.302674027E+01+
*       4.9999772466E+00               0
GRID*               7261               07.8522337101E+01-3.860685884E+01+
*       4.9999489719E+00               0
GRID*               7262               07.6190263157E+01-4.302662451E+01+
*       9.9999348691E+00               0
GRID*               7263               08.0598289406E+01-3.406115380E+01+
*       4.9999579949E+00               0
GRID*               7264               08.2411280078E+01-2.940455058E+01+
*       5.0000373944E+00               0
GRID*               7265               08.0598361137E+01-3.406097017E+01+
*       9.9998939785E+00               0
GRID*               7266               08.3955632058E+01-2.465151193E+01+
*       4.9999363938E+00               0
GRID*               7267               08.5225971876E+01-1.981871136E+01+
*       5.0000535015E+00               0
GRID*               7268               08.3955688083E+01-2.465130681E+01+
*       9.9998673286E+00               0
GRID*               7269               08.6218464435E+01-1.492049651E+01+
*       4.9999151608E+00               0
GRID*               7270               08.6929634060E+01-9.974360200E+00+
*       5.0000222787E+00               0
GRID*               7271               08.6218484708E+01-1.492037074E+01+
*       9.9998737717E+00               0
GRID*               7272               08.7357283198E+01-4.994977393E+00+
*       4.9998976914E+00               0
GRID*               7273               08.7357276730E+01-4.995098886E+00+
*       9.9999371908E+00               0
GRID*               7274               08.7357248196E+01-4.995634899E+00+
*       1.5000111493E+01               0
GRID*               7275               08.6929642776E+01-9.974306126E+00+
*       1.5000004488E+01               0
GRID*               7276               08.6218371033E+01-1.492107596E+01+
*       1.5000105735E+01               0
GRID*               7277               08.5226001777E+01-1.981860188E+01+
*       1.5000016638E+01               0
GRID*               7278               08.3955520603E+01-2.465191999E+01+
*       1.5000073738E+01               0
GRID*               7279               08.2411283451E+01-2.940454194E+01+
*       1.5000034379E+01               0
GRID*               7280               08.0598250017E+01-3.406125464E+01+
*       1.4999993153E+01               0
GRID*               7281               07.8522185808E+01-3.860714961E+01+
*       1.5000055417E+01               0
GRID*               7282               07.6190250431E+01-4.302664897E+01+
*       1.4999943821E+01               0
GRID*               7283               07.3609407167E+01-4.730644358E+01+
*       1.5000077127E+01               0
GRID*               7284               07.0788895624E+01-5.143131493E+01+
*       1.4999964147E+01               0
GRID*               7285               06.7737006915E+01-5.538900987E+01+
*       1.5000096456E+01               0
GRID*               7286               06.4464659820E+01-5.916551252E+01+
*       1.4999996112E+01               0
GRID*               7287               06.0981549507E+01-6.274946809E+01+
*       1.5000109385E+01               0
GRID*               7288               05.7300053818E+01-6.612831258E+01+
*       1.5000001805E+01               0
GRID*               7289               05.3431119729E+01-6.929185586E+01+
*       1.5000110219E+01               0
GRID*               7290               04.9388433854E+01-7.222902273E+01+
*       1.5000011329E+01               0
GRID*               7291               04.5184183643E+01-7.493087861E+01+
*       1.5000089857E+01               0
GRID*               7292               04.0832933122E+01-7.738810987E+01+
*       1.5000027234E+01               0
GRID*               7293               03.6348308962E+01-7.959301340E+01+
*       1.5000031183E+01               0
GRID*               7294               03.1745090721E+01-8.153830776E+01+
*       1.5000047320E+01               0
GRID*               7295               02.7038653506E+01-8.321753737E+01+
*       1.4999950854E+01               0
GRID*               7296               02.2243391370E+01-8.462551089E+01+
*       1.5000069114E+01               0
GRID*               7297               01.7376277406E+01-8.575729314E+01+
*       1.4999952164E+01               0
GRID*               7298               01.2451713835E+01-8.660946848E+01+
*       1.5000089749E+01               0
GRID*               7299               07.4872715139E+00-8.717907319E+01+
*       1.4999986268E+01               0
GRID*               7300               02.4977209994E+00-8.746431690E+01+
*       1.5000105630E+01               0
GRID*               7301               0-2.499285378E+00-8.746430182E+01+
*       1.5000000298E+01               0
GRID*               7302               0-7.488804813E+00-8.717891762E+01+
*       1.5000111801E+01               0
GRID*               7303               0-1.245323674E+01-8.660927600E+01+
*       1.5000006903E+01               0
GRID*               7304               0-1.737764978E+01-8.575700273E+01+
*       1.5000100788E+01               0
GRID*               7305               0-2.224485815E+01-8.462513893E+01+
*       1.5000020656E+01               0
GRID*               7306               0-2.703986219E+01-8.321714107E+01+
*       1.5000059357E+01               0
GRID*               7307               0-3.174649227E+01-8.153776203E+01+
*       1.5000039429E+01               0
GRID*               7308               0-3.634944233E+01-7.959249302E+01+
*       1.4999970837E+01               0
GRID*               7309               0-4.083426131E+01-7.738739420E+01+
*       1.5000060896E+01               0
GRID*               7310               0-4.518534049E+01-7.493018764E+01+
*       1.4999944734E+01               0
GRID*               7311               0-4.938968143E+01-7.222814349E+01+
*       1.5000082355E+01               0
GRID*               7312               0-5.343231698E+01-6.929095689E+01+
*       1.4999973244E+01               0
GRID*               7313               0-5.730120797E+01-6.612727263E+01+
*       1.5000100508E+01               0
GRID*               7314               0-6.098269633E+01-6.274838888E+01+
*       1.4999999545E+01               0
GRID*               7315               0-6.446569894E+01-5.916433559E+01+
*       1.5000111002E+01               0
GRID*               7316               0-6.773800897E+01-5.538783134E+01+
*       1.5000003480E+01               0
GRID*               7317               0-7.078974444E+01-5.143012547E+01+
*       1.5000107567E+01               0
GRID*               7318               0-7.361024747E+01-4.730517601E+01+
*       1.5000014800E+01               0
GRID*               7319               0-7.619089322E+01-4.302550386E+01+
*       1.5000079705E+01               0
GRID*               7320               0-7.852285489E+01-3.860580021E+01+
*       1.5000031980E+01               0
GRID*               7321               0-8.059873078E+01-3.406011050E+01+
*       1.5000006729E+01               0
GRID*               7322               0-8.241178357E+01-2.940312141E+01+
*       1.5000052727E+01               0
GRID*               7323               0-8.395589147E+01-2.465067536E+01+
*       1.4999944908E+01               0
GRID*               7324               0-8.522632822E+01-1.981711923E+01+
*       1.5000074533E+01               0
GRID*               7325               0-8.621862811E+01-1.491965652E+01+
*       1.4999959870E+01               0
GRID*               7326               0-8.692978887E+01-9.972769946E+00+
*       1.5000094336E+01               0
GRID*               7327               0-8.735736167E+01-4.994075885E+00+
*       1.4999993385E+01               0
GRID*               7328               0-8.749996893E+011.5731005225E-03+
*       1.5000108286E+01               0
GRID*               7329               0-8.735722191E+014.9965343226E+00+
*       1.5000001171E+01               0
GRID*               7330               0-8.692943899E+019.9758617658E+00+
*       1.5000111031E+01               0
GRID*               7331               0-8.621822502E+011.4922007916E+01+
*       1.5000009765E+01               0
GRID*               7332               0-8.522565748E+011.9820041225E+01+
*       1.5000093979E+01               0
GRID*               7333               0-8.395522221E+012.4652966091E+01+
*       1.5000024988E+01               0
GRID*               7334               0-8.241085904E+012.9405731697E+01+
*       1.5000041479E+01               0
GRID*               7335               0-8.059770027E+013.4062538241E+01+
*       1.5000044693E+01               0
GRID*               7336               0-7.852177655E+013.8607990841E+01+
*       1.4999955854E+01               0
GRID*               7337               0-7.618944583E+014.3028050289E+01+
*       1.5000066413E+01               0
GRID*               7338               0-7.360896361E+014.7307165729E+01+
*       1.4999949061E+01               0
GRID*               7339               0-7.078792939E+015.1432613140E+01+
*       1.5000087347E+01               0
GRID*               7340               0-6.773646594E+015.5389715124E+01+
*       1.4999982186E+01               0
GRID*               7341               0-6.446357307E+015.9166648416E+01+
*       1.5000104049E+01               0
GRID*               7342               0-6.098091931E+016.2750115929E+01+
*       1.5000000082E+01               0
GRID*               7343               0-5.729884271E+016.6129326906E+01+
*       1.5000111773E+01               0
GRID*               7344               0-5.343040687E+016.9292433400E+01+
*       1.5000005660E+01               0
GRID*               7345               0-4.938716685E+017.2229871830E+01+
*       1.5000103434E+01               0
GRID*               7346               0-4.518331614E+017.4931413263E+01+
*       1.5000018635E+01               0
GRID*               7347               0-4.083172440E+017.7388741525E+01+
*       1.5000066836E+01               0
GRID*               7348               0-3.634716516E+017.9593532155E+01+
*       1.5000036916E+01               0
GRID*               7349               0-3.174412445E+018.1538685773E+01+
*       1.4999980844E+01               0
GRID*               7350               0-2.703715777E+018.3218011725E+01+
*       1.5000058195E+01               0
GRID*               7351               0-2.224256524E+018.4625737559E+01+
*       1.4999943796E+01               0
GRID*               7352               0-1.737467356E+018.5757598527E+01+
*       1.5000079824E+01               0
GRID*               7353               0-1.245085658E+018.6609614856E+01+
*       1.4999968725E+01               0
GRID*               7354               0-7.485689009E+008.7179181440E+01+
*       1.5000098585E+01               0
GRID*               7355               0-2.496811736E+008.7464372237E+01+
*       1.4999998238E+01               0
GRID*               7356               02.4988492977E+008.7464305743E+01+
*       1.5000035409E+01               0
GRID*               7357               07.4872374311E+008.7179077758E+01+
*       1.5000002567E+01               0
GRID*               7358               01.2452320710E+018.6609387073E+01+
*       1.5000109091E+01               0
GRID*               7359               01.7376173165E+018.5757318626E+01+
*       1.5000012988E+01               0
GRID*               7360               02.2243852867E+018.4625398079E+01+
*       1.5000085169E+01               0
GRID*               7361               02.7038596662E+018.3217557879E+01+
*       1.5000029539E+01               0
GRID*               7362               03.1745285021E+018.1538237657E+01+
*       1.5000019768E+01               0
GRID*               7363               03.6348533719E+017.9592904207E+01+
*       1.5000049971E+01               0
GRID*               7364               04.0832862452E+017.7388144206E+01+
*       1.4999947262E+01               0
GRID*               7365               04.5184605551E+017.4930614491E+01+
*       1.5000071795E+01               0
GRID*               7366               04.9388347953E+017.2229076508E+01+
*       1.4999955764E+01               0
GRID*               7367               05.3431609613E+016.9291471188E+01+
*       1.5000092050E+01               0
GRID*               7368               05.7300033988E+016.6128328153E+01+
*       1.4999990008E+01               0
GRID*               7369               06.0982027165E+016.2749003381E+01+
*       1.5000107015E+01               0
GRID*               7370               06.4464653484E+015.9165520183E+01+
*       1.5000000659E+01               0
GRID*               7371               06.7737415239E+015.5388516248E+01+
*       1.5000111547E+01               0
GRID*               7372               07.0788848641E+015.1431385737E+01+
*       1.5000008250E+01               0
GRID*               7373               07.3609704818E+014.7305994981E+01+
*       1.5000097677E+01               0
GRID*               7374               07.6190202922E+014.3026740272E+01+
*       1.5000022754E+01               0
GRID*               7375               07.8522337100E+013.8606858840E+01+
*       1.5000051027E+01               0
GRID*               7376               08.0598289406E+013.4061153802E+01+
*       1.5000042005E+01               0
GRID*               7377               08.2411280078E+012.9404550578E+01+
*       1.4999962605E+01               0
GRID*               7378               08.3955632058E+012.4651511933E+01+
*       1.5000063606E+01               0
GRID*               7379               08.5225971876E+011.9818711359E+01+
*       1.4999946498E+01               0
GRID*               7380               08.6218464435E+011.4920496514E+01+
*       1.5000084839E+01               0
GRID*               3986               02.0612311541E+017.6620570459E+01+
*       2.0000000000E+01               0
GRID*               3987               02.2696026395E+016.8408508876E+01+
*       2.0000000000E+01               0
GRID*               3988               02.4156643936E+016.0584639742E+01+
*       2.0000000000E+01               0
GRID*               3989               03.0793349254E+01-3.642828269E+01+
*       2.0000000000E+01               0
GRID*               3990               0-2.380106108E+01-3.823068609E+01+
*       2.0000000000E+01               0
GRID*               3991               0-4.503426420E+011.8339397866E+00+
*       2.0000000000E+01               0
GRID*               3992               04.5025337866E+01-1.179994617E-01+
*       2.0000000000E+01               0
GRID*               3993               0-2.580507289E+013.7112946582E+01+
*       2.0000000000E+01               0
GRID*               3994               04.0993829935E+014.4518204980E+01+
*       2.0000000000E+01               0
GRID*               3995               04.9667489042E+014.3248919741E+01+
*       2.0000000000E+01               0
GRID*               3996               05.8675916723E+014.1917997195E+01+
*       2.0000000000E+01               0
GRID*               3997               06.8128737521E+014.0241714087E+01+
*       2.0000000000E+01               0
GRID*               3998               03.1207300020E+015.7660864113E+01+
*       2.0000000000E+01               0
GRID*               3999               03.0274150053E+016.5326321319E+01+
*       2.0000000000E+01               0
GRID*               4000               02.9011407050E+017.3839387933E+01+
*       2.0000000000E+01               0
GRID*               4001               03.7103413358E+017.0114556792E+01+
*       2.0000000000E+01               0
GRID*               4002               03.7338059868E+016.1714906094E+01+
*       2.0000000000E+01               0
GRID*               4003               04.4421072751E+016.5658859164E+01+
*       2.0000000000E+01               0
GRID*               4004               06.3989671591E+014.9444109406E+01+
*       2.0000000000E+01               0
GRID*               4005               05.4908840001E+015.1315034413E+01+
*       2.0000000000E+01               0
GRID*               4006               04.6182217406E+015.1721507000E+01+
*       2.0000000000E+01               0
GRID*               4007               03.7769597256E+015.3166993949E+01+
*       2.0000000000E+01               0
GRID*               4008               04.3229222228E+015.8434673533E+01+
*       2.0000000000E+01               0
GRID*               4009               05.0467458560E+015.9849458761E+01+
*       2.0000000000E+01               0
GRID*               4010               02.7518337667E+013.6820971256E+01+
*       2.0000000000E+01               0
GRID*               4011               07.6998128292E+011.3077945471E+01+
*       2.0000000000E+01               0
GRID*               4012               06.9403174460E+017.2342745131E+00+
*       2.0000000000E+01               0
GRID*               4013               06.3886209421E+013.1957492869E+00+
*       2.0000000000E+01               0
GRID*               4014               07.7650159439E+01-1.581407824E+01+
*       2.0000000000E+01               0
GRID*               4015               06.9446351508E+01-1.181168104E+01+
*       2.0000000000E+01               0
GRID*               4016               06.1487187022E+01-8.506167774E+00+
*       2.0000000000E+01               0
GRID*               4017               03.2343733821E+00-7.925626788E+01+
*       2.0000000000E+01               0
GRID*               4018               08.8048847036E+00-7.221411464E+01+
*       2.0000000000E+01               0
GRID*               4019               01.4851663231E+01-6.533027570E+01+
*       2.0000000000E+01               0
GRID*               4020               01.9972394404E+01-5.817432636E+01+
*       2.0000000000E+01               0
GRID*               4021               0-5.827629443E+00-7.842972415E+01+
*       2.0000000000E+01               0
GRID*               4022               02.4250875405E-01-7.096291071E+01+
*       2.0000000000E+01               0
GRID*               4023               06.1158854786E+00-6.396257918E+01+
*       2.0000000000E+01               0
GRID*               4024               01.1749861281E+01-5.720153915E+01+
*       2.0000000000E+01               0
GRID*               4025               01.6859236283E+01-5.103576218E+01+
*       2.0000000000E+01               0
GRID*               4026               0-2.425739175E+01-7.472509443E+01+
*       2.0000000000E+01               0
GRID*               4027               0-2.615911259E+01-6.590428785E+01+
*       2.0000000000E+01               0
GRID*               4028               0-2.805479726E+01-5.945053019E+01+
*       2.0000000000E+01               0
GRID*               4029               0-3.281263689E+01-7.165998376E+01+
*       2.0000000000E+01               0
GRID*               4030               0-3.336138162E+01-6.318965495E+01+
*       2.0000000000E+01               0
GRID*               4031               0-3.291397459E+01-5.622047745E+01+
*       2.0000000000E+01               0
GRID*               4032               0-4.442063475E+01-5.863671287E+00+
*       2.0000000000E+01               0
GRID*               4033               0-4.292516025E+01-1.449057679E+01+
*       2.0000000000E+01               0
GRID*               4034               0-4.021971012E+01-2.260738233E+01+
*       2.0000000000E+01               0
GRID*               4035               0-3.828205642E+01-3.130252843E+01+
*       2.0000000000E+01               0
GRID*               4036               0-3.521969982E+01-3.913279328E+01+
*       2.0000000000E+01               0
GRID*               4037               0-3.042904904E+01-3.444699044E+01+
*       2.0000000000E+01               0
GRID*               4038               0-7.682621975E+01-1.710934606E+01+
*       2.0000000000E+01               0
GRID*               4039               0-7.185655858E+01-1.099763059E+01+
*       2.0000000000E+01               0
GRID*               4040               0-6.558959410E+01-8.085644825E+00+
*       2.0000000000E+01               0
GRID*               4041               0-7.867558146E+01-8.688128342E+00+
*       2.0000000000E+01               0
GRID*               4042               0-7.147469700E+01-4.316741819E+00+
*       2.0000000000E+01               0
GRID*               4043               0-6.519771474E+01-2.002749033E+00+
*       2.0000000000E+01               0
GRID*               4044               0-7.680108846E+011.8693776517E+01+
*       2.0000000000E+01               0
GRID*               4045               0-6.890549336E+011.3783091055E+01+
*       2.0000000000E+01               0
GRID*               4046               0-6.116390831E+019.3432057957E+00+
*       2.0000000000E+01               0
GRID*               4047               0-4.759021754E+016.1497177858E+01+
*       2.0000000000E+01               0
GRID*               4048               0-3.923041146E+015.7804826833E+01+
*       2.0000000000E+01               0
GRID*               4049               0-3.396689249E+015.4685624416E+01+
*       2.0000000000E+01               0
GRID*               4050               0-2.210964918E+017.3132891676E+01+
*       2.0000000000E+01               0
GRID*               4051               0-2.533822244E+016.5198444555E+01+
*       2.0000000000E+01               0
GRID*               4052               0-2.243789851E+015.7415916035E+01+
*       2.0000000000E+01               0
GRID*               4053               0-1.900928763E+014.1769758207E+01+
*       2.0000000000E+01               0
GRID*               4054               01.1781928634E+017.8196194402E+01+
*       2.0000000000E+01               0
GRID*               4055               01.5787656212E+017.1211850684E+01+
*       2.0000000000E+01               0
GRID*               4056               01.6232102566E+016.3778362090E+01+
*       2.0000000000E+01               0
GRID*               4057               01.8319618442E+015.5512642588E+01+
*       2.0000000000E+01               0
GRID*               4058               01.2479431709E+014.7848150422E+01+
*       2.0000000000E+01               0
GRID*               4059               01.8296394934E+014.4753120402E+01+
*       2.0000000000E+01               0
GRID*               4060               02.2497938274E+007.9357256103E+01+
*       2.0000000000E+01               0
GRID*               4061               06.9514583218E+006.9449067942E+01+
*       2.0000000000E+01               0
GRID*               4062               08.7465580631E+005.8201238891E+01+
*       2.0000000000E+01               0
GRID*               4063               08.3934050821E-025.0116041743E+01+
*       2.0000000000E+01               0
GRID*               4064               0-2.028498225E+006.2628424833E+01+
*       2.0000000000E+01               0
GRID*               4065               0-1.202391818E+015.6873944655E+01+
*       2.0000000000E+01               0
GRID*               4066               0-1.812071022E+014.9642490526E+01+
*       2.0000000000E+01               0
GRID*               4067               0-1.049168435E+014.6060160425E+01+
*       2.0000000000E+01               0
GRID*               4068               0-1.192662698E+016.7939913423E+01+
*       2.0000000000E+01               0
GRID*               4069               0-4.018700059E+007.2989584260E+01+
*       2.0000000000E+01               0
GRID*               4070               0-1.305761231E+017.7645520002E+01+
*       2.0000000000E+01               0
GRID*               4071               0-5.945882003E+008.0789184731E+01+
*       2.0000000000E+01               0
GRID*               4072               0-1.886147818E+016.4096724701E+01+
*       2.0000000000E+01               0
GRID*               4073               0-3.196165016E+017.0793331466E+01+
*       2.0000000000E+01               0
GRID*               4074               0-4.008506578E+016.6728738273E+01+
*       2.0000000000E+01               0
GRID*               4075               0-3.161197502E+016.0891226793E+01+
*       2.0000000000E+01               0
GRID*               4076               0-3.730374722E+014.6256740565E+01+
*       2.0000000000E+01               0
GRID*               4077               0-4.456646868E+015.0970949438E+01+
*       2.0000000000E+01               0
GRID*               4078               0-5.482375817E+015.5012317396E+01+
*       2.0000000000E+01               0
GRID*               4079               0-4.411922656E+011.4622209883E+01+
*       2.0000000000E+01               0
GRID*               4080               0-5.252777010E+011.1699551787E+01+
*       2.0000000000E+01               0
GRID*               4081               0-4.620789593E+017.8920773574E+00+
*       2.0000000000E+01               0
GRID*               4082               0-3.337684080E+013.4377598701E+01+
*       2.0000000000E+01               0
GRID*               4083               0-4.168274015E+012.9333295063E+01+
*       2.0000000000E+01               0
GRID*               4084               0-5.011982199E+012.2336203474E+01+
*       2.0000000000E+01               0
GRID*               4085               0-6.026390094E+011.7923179599E+01+
*       2.0000000000E+01               0
GRID*               4086               0-4.087292762E+012.1234640591E+01+
*       2.0000000000E+01               0
GRID*               4087               0-3.501531932E+014.0973218516E+01+
*       2.0000000000E+01               0
GRID*               4088               0-4.235340764E+013.9921742161E+01+
*       2.0000000000E+01               0
GRID*               4089               0-5.130419217E+013.3581941994E+01+
*       2.0000000000E+01               0
GRID*               4090               0-6.008465351E+012.7671519968E+01+
*       2.0000000000E+01               0
GRID*               4091               0-6.852380803E+012.2658037450E+01+
*       2.0000000000E+01               0
GRID*               4092               0-3.059468953E+013.9800542517E+01+
*       2.0000000000E+01               0
GRID*               4093               0-5.270494207E+014.4222718416E+01+
*       2.0000000000E+01               0
GRID*               4094               0-6.221669187E+014.8070379409E+01+
*       2.0000000000E+01               0
GRID*               4095               0-6.087015988E+013.7687906600E+01+
*       2.0000000000E+01               0
GRID*               4096               0-7.576667536E+012.6250911277E+01+
*       2.0000000000E+01               0
GRID*               4097               0-6.915921827E+013.1539624115E+01+
*       2.0000000000E+01               0
GRID*               4098               0-6.967105145E+014.1014275143E+01+
*       2.0000000000E+01               0
GRID*               4099               0-3.741707550E+015.1915510349E+01+
*       2.0000000000E+01               0
GRID*               4100               0-7.782567341E+019.4507383758E+00+
*       2.0000000000E+01               0
GRID*               4101               0-7.862893127E+017.5925040826E-02+
*       2.0000000000E+01               0
GRID*               4102               0-6.910019496E+014.1133833849E+00+
*       2.0000000000E+01               0
GRID*               4103               0-7.339012401E+01-2.606387191E+01+
*       2.0000000000E+01               0
GRID*               4104               0-6.646631731E+01-1.720647781E+01+
*       2.0000000000E+01               0
GRID*               4105               0-5.875390333E+01-1.089361746E+01+
*       2.0000000000E+01               0
GRID*               4106               0-6.282364196E+01-2.754735689E+01+
*       2.0000000000E+01               0
GRID*               4107               0-5.203543235E+01-2.940397258E+01+
*       2.0000000000E+01               0
GRID*               4108               0-4.478894593E+01-3.312660067E+01+
*       2.0000000000E+01               0
GRID*               4109               0-4.133791999E+01-3.751169002E+01+
*       2.0000000000E+01               0
GRID*               4110               0-5.634096898E+01-1.952104417E+01+
*       2.0000000000E+01               0
GRID*               4111               0-4.767605057E+01-2.080167139E+01+
*       2.0000000000E+01               0
GRID*               4112               0-5.046971860E+01-1.140870095E+01+
*       2.0000000000E+01               0
GRID*               4113               0-4.452278793E+01-2.743115393E+01+
*       2.0000000000E+01               0
GRID*               4114               0-4.070832482E+01-6.747916338E+01+
*       2.0000000000E+01               0
GRID*               4115               0-3.981349362E+01-5.858942254E+01+
*       2.0000000000E+01               0
GRID*               4116               0-4.832656659E+01-6.200455447E+01+
*       2.0000000000E+01               0
GRID*               4117               0-6.965998756E+01-3.541422527E+01+
*       2.0000000000E+01               0
GRID*               4118               0-5.928635169E+01-3.726727428E+01+
*       2.0000000000E+01               0
GRID*               4119               0-4.875248397E+01-3.994674900E+01+
*       2.0000000000E+01               0
GRID*               4120               0-4.027075124E+01-4.402907416E+01+
*       2.0000000000E+01               0
GRID*               4121               0-6.584784063E+01-4.426896307E+01+
*       2.0000000000E+01               0
GRID*               4122               0-5.662121383E+01-4.674181374E+01+
*       2.0000000000E+01               0
GRID*               4123               0-4.675919754E+01-5.124344900E+01+
*       2.0000000000E+01               0
GRID*               4124               0-3.743825099E+01-5.111369701E+01+
*       2.0000000000E+01               0
GRID*               4125               0-6.276551040E+01-5.154733893E+01+
*       2.0000000000E+01               0
GRID*               4126               0-5.609614041E+01-5.613464315E+01+
*       2.0000000000E+01               0
GRID*               4127               0-1.690595018E+01-4.341299776E+01+
*       2.0000000000E+01               0
GRID*               4128               09.1495841756E+00-4.917944820E+01+
*       2.0000000000E+01               0
GRID*               4129               01.5084055571E+01-4.392349661E+01+
*       2.0000000000E+01               0
GRID*               4130               02.0078065322E+01-4.054649062E+01+
*       2.0000000000E+01               0
GRID*               4131               0-7.871833596E+00-4.590881627E+01+
*       2.0000000000E+01               0
GRID*               4132               0-5.244510588E+00-5.403111526E+01+
*       2.0000000000E+01               0
GRID*               4133               0-2.570947362E+00-6.247970674E+01+
*       2.0000000000E+01               0
GRID*               4134               03.3249817647E+00-5.570787412E+01+
*       2.0000000000E+01               0
GRID*               4135               06.9847595564E-01-4.741539997E+01+
*       2.0000000000E+01               0
GRID*               4136               0-1.401608462E+01-5.207102344E+01+
*       2.0000000000E+01               0
GRID*               4137               0-1.147456452E+01-6.072419522E+01+
*       2.0000000000E+01               0
GRID*               4138               0-8.732757344E+00-6.954353675E+01+
*       2.0000000000E+01               0
GRID*               4139               0-1.519109327E+01-7.692344570E+01+
*       2.0000000000E+01               0
GRID*               4140               0-1.777747637E+01-6.771943698E+01+
*       2.0000000000E+01               0
GRID*               4141               0-2.087796220E+01-5.846294333E+01+
*       2.0000000000E+01               0
GRID*               4142               04.0196383257E+01-4.983590026E+01+
*       2.0000000000E+01               0
GRID*               4143               04.8311875334E+01-5.121978856E+01+
*       2.0000000000E+01               0
GRID*               4144               05.7712383835E+01-5.295233742E+01+
*       2.0000000000E+01               0
GRID*               4145               03.7138289473E+01-3.140582996E+01+
*       2.0000000000E+01               0
GRID*               4146               04.4949632390E+01-2.633190599E+01+
*       2.0000000000E+01               0
GRID*               4147               05.3335048266E+01-2.158099675E+01+
*       2.0000000000E+01               0
GRID*               4148               06.1458748818E+01-1.689040747E+01+
*       2.0000000000E+01               0
GRID*               4149               05.3150200113E+01-1.167688442E+01+
*       2.0000000000E+01               0
GRID*               4150               04.5151542090E+01-8.030927113E+00+
*       2.0000000000E+01               0
GRID*               4151               04.4907780829E+01-1.668846853E+01+
*       2.0000000000E+01               0
GRID*               4152               05.3835834250E+01-4.259531989E+01+
*       2.0000000000E+01               0
GRID*               4153               05.3591095617E+01-3.151987906E+01+
*       2.0000000000E+01               0
GRID*               4154               03.7737097317E+01-4.157025891E+01+
*       2.0000000000E+01               0
GRID*               4155               04.5345515726E+01-3.626608786E+01+
*       2.0000000000E+01               0
GRID*               4156               04.4982557255E+01-4.435614274E+01+
*       2.0000000000E+01               0
GRID*               4157               06.1645543127E+01-2.645672385E+01+
*       2.0000000000E+01               0
GRID*               4158               06.9477492283E+01-2.132613468E+01+
*       2.0000000000E+01               0
GRID*               4159               06.4148680646E+01-4.570198888E+01+
*       2.0000000000E+01               0
GRID*               4160               06.2131351370E+01-3.620436959E+01+
*       2.0000000000E+01               0
GRID*               4161               06.9560678499E+01-3.982970188E+01+
*       2.0000000000E+01               0
GRID*               4162               06.9655494120E+01-3.128888877E+01+
*       2.0000000000E+01               0
GRID*               4163               07.7005044229E+01-2.574214296E+01+
*       2.0000000000E+01               0
GRID*               4164               05.0988155734E+01-5.986089995E+01+
*       2.0000000000E+01               0
GRID*               4165               04.2040888299E+01-5.726195737E+01+
*       2.0000000000E+01               0
GRID*               4166               03.4485422402E+01-5.493131142E+01+
*       2.0000000000E+01               0
GRID*               4167               04.3608720075E+01-6.569558817E+01+
*       2.0000000000E+01               0
GRID*               4168               02.7811322135E+01-5.783546074E+01+
*       2.0000000000E+01               0
GRID*               4169               03.4808708908E+01-6.211111263E+01+
*       2.0000000000E+01               0
GRID*               4170               03.5325462686E+01-7.085510042E+01+
*       2.0000000000E+01               0
GRID*               4171               01.0750205033E+01-7.966879082E+01+
*       2.0000000000E+01               0
GRID*               4172               02.5220718112E+01-6.642680915E+01+
*       2.0000000000E+01               0
GRID*               4173               01.7221079342E+01-7.424208400E+01+
*       2.0000000000E+01               0
GRID*               4174               02.6550144583E+01-7.642698574E+01+
*       2.0000000000E+01               0
GRID*               4175               07.7999432711E+01-6.049281881E+00+
*       2.0000000000E+01               0
GRID*               4176               07.7911931662E+013.6849223857E+00+
*       2.0000000000E+01               0
GRID*               4177               06.8665569922E+01-2.118461061E+00+
*       2.0000000000E+01               0
GRID*               4178               04.6194043364E+018.3485164891E+00+
*       2.0000000000E+01               0
GRID*               4179               03.4814324309E+013.7315321773E+01+
*       2.0000000000E+01               0
GRID*               4180               04.4378673296E+013.5833506856E+01+
*       2.0000000000E+01               0
GRID*               4181               05.3347759188E+013.4613558061E+01+
*       2.0000000000E+01               0
GRID*               4182               06.2348373467E+013.3120308439E+01+
*       2.0000000000E+01               0
GRID*               4183               07.1921588659E+013.1338899828E+01+
*       2.0000000000E+01               0
GRID*               4184               06.5464536438E+012.4518071475E+01+
*       2.0000000000E+01               0
GRID*               4185               06.7820436961E+011.5849297775E+01+
*       2.0000000000E+01               0
GRID*               4186               07.4942854647E+012.2336340470E+01+
*       2.0000000000E+01               0
GRID*               4187               05.9336840377E+011.8491665093E+01+
*       2.0000000000E+01               0
GRID*               4188               05.2409296322E+012.0937015063E+01+
*       2.0000000000E+01               0
GRID*               4189               04.4398242782E+011.8926955353E+01+
*       2.0000000000E+01               0
GRID*               4190               05.3002173920E+011.3688233167E+01+
*       2.0000000000E+01               0
GRID*               4191               06.1059951574E+019.7654588960E+00+
*       2.0000000000E+01               0
GRID*               4192               05.6879060514E+012.6508505764E+01+
*       2.0000000000E+01               0
GRID*               4193               04.8467643972E+012.7498688525E+01+
*       2.0000000000E+01               0
GRID*               4194               03.9172159735E+012.8072202531E+01+
*       2.0000000000E+01               0
GRID*               4195               02.8576109692E+015.5543617702E+01+
*       2.0000000000E+01               0
GRID*               4196               03.1474572749E+015.4767848361E+01+
*       2.0000000000E+01               0
GRID*               4197               02.7681971978E+015.9122751928E+01+
*       2.0000000000E+01               0
GRID*               4198               02.5050781650E+015.7005505516E+01+
*       2.0000000000E+01               0
GRID*               4199               02.7215396994E+016.2955480530E+01+
*       2.0000000000E+01               0
GRID*               4200               02.6485088224E+016.6867415098E+01+
*       2.0000000000E+01               0
GRID*               4201               02.3426335165E+016.4496574309E+01+
*       2.0000000000E+01               0
GRID*               4202               03.0740725036E+016.1493592716E+01+
*       2.0000000000E+01               0
GRID*               4203               02.3825411619E+017.9919079448E+01+
*       2.0000000000E+01               0
GRID*               4204               02.4811859295E+017.5229979196E+01+
*       2.0000000000E+01               0
GRID*               4205               02.8024959374E+017.8528488185E+01+
*       2.0000000000E+01               0
GRID*               4206               01.8994223181E+018.1188949213E+01+
*       2.0000000000E+01               0
GRID*               4207               02.5853716722E+017.1123948405E+01+
*       2.0000000000E+01               0
GRID*               4208               02.9642778551E+016.9582854626E+01+
*       2.0000000000E+01               0
GRID*               4209               02.1654168968E+017.2514539668E+01+
*       2.0000000000E+01               0
GRID*               4210               03.3057410204E+017.1976972363E+01+
*       2.0000000000E+01               0
GRID*               4211               03.3688781705E+016.7720439055E+01+
*       2.0000000000E+01               0
GRID*               4212               03.6725904606E+017.4853764078E+01+
*       2.0000000000E+01               0
GRID*               4213               04.1143916015E+017.2522644225E+01+
*       2.0000000000E+01               0
GRID*               4214               03.2679901452E+017.6716179649E+01+
*       2.0000000000E+01               0
GRID*               4215               03.3806104960E+016.3520613707E+01+
*       2.0000000000E+01               0
GRID*               4216               03.7220736613E+016.5914731443E+01+
*       2.0000000000E+01               0
GRID*               4217               03.4272679944E+015.9687885104E+01+
*       2.0000000000E+01               0
GRID*               4218               04.0762243055E+016.7886707978E+01+
*       2.0000000000E+01               0
GRID*               4219               04.0879566310E+016.3686882629E+01+
*       2.0000000000E+01               0
GRID*               4220               04.4802745711E+017.0294795411E+01+
*       2.0000000000E+01               0
GRID*               4221               04.8926229774E+016.7475252569E+01+
*       2.0000000000E+01               0
GRID*               4222               07.0869137734E+014.3773979916E+01+
*       2.0000000000E+01               0
GRID*               4223               07.3325500938E+013.9424356469E+01+
*       2.0000000000E+01               0
GRID*               4224               06.8799604769E+014.8375177576E+01+
*       2.0000000000E+01               0
GRID*               4225               06.5863434052E+015.2416445242E+01+
*       2.0000000000E+01               0
GRID*               4226               06.6059204556E+014.4842911747E+01+
*       2.0000000000E+01               0
GRID*               4227               06.1332794157E+014.5681053300E+01+
*       2.0000000000E+01               0
GRID*               4228               06.3402327122E+014.1079855641E+01+
*       2.0000000000E+01               0
GRID*               4229               05.6792378362E+014.6616515804E+01+
*       2.0000000000E+01               0
GRID*               4230               05.9449255796E+015.0379571909E+01+
*       2.0000000000E+01               0
GRID*               4231               05.2288164522E+014.7281977077E+01+
*       2.0000000000E+01               0
GRID*               4232               05.0545528704E+015.1518270706E+01+
*       2.0000000000E+01               0
GRID*               4233               04.7924853224E+014.7485213370E+01+
*       2.0000000000E+01               0
GRID*               4234               05.4171702883E+014.2583458468E+01+
*       2.0000000000E+01               0
GRID*               4235               03.5532576185E+014.9622738765E+01+
*       2.0000000000E+01               0
GRID*               4236               03.4755721367E+015.2520913279E+01+
*       2.0000000000E+01               0
GRID*               4237               03.7144692525E+014.5298344281E+01+
*       2.0000000000E+01               0
GRID*               4238               03.9381713596E+014.8842599464E+01+
*       2.0000000000E+01               0
GRID*               4239               04.3588023671E+014.8119855990E+01+
*       2.0000000000E+01               0
GRID*               4240               04.5330659489E+014.3883562360E+01+
*       2.0000000000E+01               0
GRID*               4241               04.1975907331E+015.2444250474E+01+
*       2.0000000000E+01               0
GRID*               4242               06.2485731405E+015.6096671478E+01+
*       2.0000000000E+01               0
GRID*               4243               05.7945315610E+015.7032133981E+01+
*       2.0000000000E+01               0
GRID*               4244               03.4488448638E+015.5413929031E+01+
*       2.0000000000E+01               0
GRID*               4245               03.7553828562E+015.7440950022E+01+
*       2.0000000000E+01               0
GRID*               4246               04.0283641048E+016.0074789814E+01+
*       2.0000000000E+01               0
GRID*               4247               04.3825147490E+016.2046766349E+01+
*       2.0000000000E+01               0
GRID*               4248               04.0499409742E+015.5800833741E+01+
*       2.0000000000E+01               0
GRID*               4249               04.4705719817E+015.5078090266E+01+
*       2.0000000000E+01               0
GRID*               4250               04.7444265656E+016.2754158963E+01+
*       2.0000000000E+01               0
GRID*               4251               04.6848340394E+015.9142066147E+01+
*       2.0000000000E+01               0
GRID*               4252               05.1949422678E+016.4570552367E+01+
*       2.0000000000E+01               0
GRID*               4253               05.5724624889E+016.1299346155E+01+
*       2.0000000000E+01               0
GRID*               4254               05.2688149281E+015.5582246587E+01+
*       2.0000000000E+01               0
GRID*               4255               04.8324837983E+015.5785482880E+01+
*       2.0000000000E+01               0
GRID*               4256               02.5388245677E+014.0104466034E+01+
*       2.0000000000E+01               0
GRID*               4257               02.8286709232E+013.9328696997E+01+
*       2.0000000000E+01               0
GRID*               4258               02.2695660980E+013.8353233675E+01+
*       2.0000000000E+01               0
GRID*               4259               01.8855272038E+014.0342868124E+01+
*       2.0000000000E+01               0
GRID*               4260               02.4825752970E+013.5069738898E+01+
*       2.0000000000E+01               0
GRID*               4261               04.7241030063E+011.0890504582E+00+
*       2.0000000000E+01               0
GRID*               4262               04.7632467290E+01-1.885038855E+00+
*       2.0000000000E+01               0
GRID*               4263               02.6776225854E+01-3.466120195E+01+
*       2.0000000000E+01               0
GRID*               4264               03.0045132892E+01-3.183111710E+01+
*       2.0000000000E+01               0
GRID*               4265               02.8369134479E+01-3.913235290E+01+
*       2.0000000000E+01               0
GRID*               4266               03.1267597908E+01-3.990812188E+01+
*       2.0000000000E+01               0
GRID*               4267               02.4352011080E+01-3.736527216E+01+
*       2.0000000000E+01               0
GRID*               4268               0-3.591636461E+01-2.355743120E+01+
*       2.0000000000E+01               0
GRID*               4269               0-3.925088327E+01-2.695495538E+01+
*       2.0000000000E+01               0
GRID*               4270               0-3.494753777E+01-2.790500425E+01+
*       2.0000000000E+01               0
GRID*               4271               0-3.818139389E+01-1.987220399E+01+
*       2.0000000000E+01               0
GRID*               4272               0-3.953411896E+01-1.581380122E+01+
*       2.0000000000E+01               0
GRID*               4273               0-4.157243518E+01-1.854897956E+01+
*       2.0000000000E+01               0
GRID*               4274               0-4.095351000E+01-1.172885907E+01+
*       2.0000000000E+01               0
GRID*               4275               0-4.170124725E+01-7.415406318E+00+
*       2.0000000000E+01               0
GRID*               4276               0-4.367289750E+01-1.017712404E+01+
*       2.0000000000E+01               0
GRID*               4277               0-4.220942363E+01-3.120899787E+00+
*       2.0000000000E+01               0
GRID*               4278               0-4.251623835E+017.2790574999E-01+
*       2.0000000000E+01               0
GRID*               4279               0-4.472744948E+01-2.014865750E+00+
*       2.0000000000E+01               0
GRID*               4280               0-3.175170219E+01-4.040783362E+01+
*       2.0000000000E+01               0
GRID*               4281               0-3.413148872E+01-4.223404479E+01+
*       2.0000000000E+01               0
GRID*               4282               0-3.435555273E+01-3.287475943E+01+
*       2.0000000000E+01               0
GRID*               4283               0-3.675087812E+01-3.521766085E+01+
*       2.0000000000E+01               0
GRID*               4284               0-3.282437443E+01-3.678989186E+01+
*       2.0000000000E+01               0
GRID*               4285               0-3.102103408E+01-2.947723525E+01+
*       2.0000000000E+01               0
GRID*               4286               0-2.801743118E+01-3.258853230E+01+
*       2.0000000000E+01               0
GRID*               4287               0-2.470343720E+01-3.448038013E+01+
*       2.0000000000E+01               0
GRID*               4288               0-2.110134902E+01-3.687329817E+01+
*       2.0000000000E+01               0
GRID*               4289               0-2.711505506E+01-3.633883827E+01+
*       2.0000000000E+01               0
GRID*               4290               0-2.935637680E+01-3.806493220E+01+
*       2.0000000000E+01               0
GRID*               4291               0-2.604238282E+01-3.995678002E+01+
*       2.0000000000E+01               0
GRID*               4292               0-2.286279143E+014.1726316281E+01+
*       2.0000000000E+01               0
GRID*               4293               0-2.048300494E+014.3552527419E+01+
*       2.0000000000E+01               0
GRID*               4294               0-2.626068406E+013.9397910468E+01+
*       2.0000000000E+01               0
GRID*               4295               0-2.240718026E+013.9441352394E+01+
*       2.0000000000E+01               0
GRID*               4296               0-1.903953787E+013.8465715668E+01+
*       2.0000000000E+01               0
GRID*               4297               0-1.503819367E+014.0104119905E+01+
*       2.0000000000E+01               0
GRID*               4298               0-2.243743050E+013.6137309855E+01+
*       2.0000000000E+01               0
GRID*               4299               0-2.599389730E+013.3676493629E+01+
*       2.0000000000E+01               0
GRID*               4300               02.2132268903E+015.4469506939E+01+
*       2.0000000000E+01               0
GRID*               4301               02.0012031618E+015.2348476580E+01+
*       2.0000000000E+01               0
GRID*               4302               02.1238131189E+015.8048641165E+01+
*       2.0000000000E+01               0
GRID*               4303               02.0194373251E+016.2181500916E+01+
*       2.0000000000E+01               0
GRID*               4304               01.9464064480E+016.6093435483E+01+
*       2.0000000000E+01               0
GRID*               4305               01.7275860504E+015.9645502339E+01+
*       2.0000000000E+01               0
GRID*               4306               01.4579031727E+018.1976761185E+01+
*       2.0000000000E+01               0
GRID*               4307               01.6197120087E+017.7408382430E+01+
*       2.0000000000E+01               0
GRID*               4308               09.6345792728E+008.2687636647E+01+
*       2.0000000000E+01               0
GRID*               4309               01.8199983877E+017.3916210572E+01+
*       2.0000000000E+01               0
GRID*               4310               01.3784792423E+017.4704022543E+01+
*       2.0000000000E+01               0
GRID*               4311               01.9241841304E+016.9810179780E+01+
*       2.0000000000E+01               0
GRID*               4312               01.6009879389E+016.7495106387E+01+
*       2.0000000000E+01               0
GRID*               4313               01.3465911049E+014.2572962929E+01+
*       2.0000000000E+01               0
GRID*               4314               09.2886202685E+004.3690313503E+01+
*       2.0000000000E+01               0
GRID*               4315               01.6374392662E+014.1025447919E+01+
*       2.0000000000E+01               0
GRID*               4316               02.0777274310E+014.4070540607E+01+
*       2.0000000000E+01               0
GRID*               4317               01.5387913321E+014.6300635412E+01+
*       2.0000000000E+01               0
GRID*               4318               02.0000419864E+014.6968715487E+01+
*       2.0000000000E+01               0
GRID*               4319               01.7091938251E+014.8516230497E+01+
*       2.0000000000E+01               0
GRID*               4320               01.5399525075E+015.1680396505E+01+
*       2.0000000000E+01               0
GRID*               4321               01.3533088252E+015.6856940739E+01+
*       2.0000000000E+01               0
GRID*               4322               01.0612994886E+015.3024694657E+01+
*       2.0000000000E+01               0
GRID*               4323               04.8685118696E+008.3268167497E+01+
*       2.0000000000E+01               0
GRID*               4324               0-1.235063080E-018.3410814472E+01+
*       2.0000000000E+01               0
GRID*               4325               07.0158612307E+007.8776725252E+01+
*       2.0000000000E+01               0
GRID*               4326               01.2489330315E+016.0989800491E+01+
*       2.0000000000E+01               0
GRID*               4327               01.1591780444E+016.6613715016E+01+
*       2.0000000000E+01               0
GRID*               4328               07.8490081925E+006.3825153416E+01+
*       2.0000000000E+01               0
GRID*               4329               01.1369557267E+017.0330459313E+01+
*       2.0000000000E+01               0
GRID*               4330               09.3666934779E+007.3822631172E+01+
*       2.0000000000E+01               0
GRID*               4331               04.6006260746E+007.4403162023E+01+
*       2.0000000000E+01               0
GRID*               4332               06.2816828797E+004.8982096083E+01+
*       2.0000000000E+01               0
GRID*               4333               04.4152460570E+005.4158640317E+01+
*       2.0000000000E+01               0
GRID*               4334               03.0908714396E+004.4824259163E+01+
*       2.0000000000E+01               0
GRID*               4335               0-1.230366316E+004.5017508128E+01+
*       2.0000000000E+01               0
GRID*               4336               0-1.856499893E+014.5706124367E+01+
*       2.0000000000E+01               0
GRID*               4337               0-2.003871624E+014.7488893578E+01+
*       2.0000000000E+01               0
GRID*               4338               03.3590299188E+006.0414831862E+01+
*       2.0000000000E+01               0
GRID*               4339               02.4614800482E+006.6038746388E+01+
*       2.0000000000E+01               0
GRID*               4340               0-9.722820873E-015.6372233288E+01+
*       2.0000000000E+01               0
GRID*               4341               0-7.026208205E+005.9751184744E+01+
*       2.0000000000E+01               0
GRID*               4342               0-5.969992067E+005.3494993199E+01+
*       2.0000000000E+01               0
GRID*               4343               0-1.430619729E+014.7851325475E+01+
*       2.0000000000E+01               0
GRID*               4344               0-1.125780127E+015.1467052540E+01+
*       2.0000000000E+01               0
GRID*               4345               0-1.507231420E+015.3258217591E+01+
*       2.0000000000E+01               0
GRID*               4346               0-1.475048599E+014.3914959316E+01+
*       2.0000000000E+01               0
GRID*               4347               0-1.077939203E+014.2249321014E+01+
*       2.0000000000E+01               0
GRID*               4348               0-6.518175517E+004.2989567469E+01+
*       2.0000000000E+01               0
GRID*               4349               0-5.203875150E+004.8088101084E+01+
*       2.0000000000E+01               0
GRID*               4350               0-2.043015356E+015.0462982917E+01+
*       2.0000000000E+01               0
GRID*               4351               01.4663791313E+007.1219326101E+01+
*       2.0000000000E+01               0
GRID*               4352               0-8.844531159E-017.6173420181E+01+
*       2.0000000000E+01               0
GRID*               4353               0-3.023599142E+006.7809004547E+01+
*       2.0000000000E+01               0
GRID*               4354               0-7.972663519E+007.0464748841E+01+
*       2.0000000000E+01               0
GRID*               4355               0-6.977562602E+006.5284169128E+01+
*       2.0000000000E+01               0
GRID*               4356               0-1.758363075E+017.5389205839E+01+
*       2.0000000000E+01               0
GRID*               4357               0-1.765000619E+018.1135653564E+01+
*       2.0000000000E+01               0
GRID*               4358               0-2.217602462E+017.8879339401E+01+
*       2.0000000000E+01               0
GRID*               4359               0-1.249211964E+017.2792716713E+01+
*       2.0000000000E+01               0
GRID*               4360               0-8.538156184E+007.5317552131E+01+
*       2.0000000000E+01               0
GRID*               4361               0-1.701813808E+017.0536402550E+01+
*       2.0000000000E+01               0
GRID*               4362               0-1.275418736E+018.2127576291E+01+
*       2.0000000000E+01               0
GRID*               4363               0-4.221344223E+008.4126778786E+01+
*       2.0000000000E+01               0
GRID*               4364               0-1.848044088E+008.0073220417E+01+
*       2.0000000000E+01               0
GRID*               4365               0-4.982291031E+007.6889384495E+01+
*       2.0000000000E+01               0
GRID*               4366               0-9.198322208E+008.3699408656E+01+
*       2.0000000000E+01               0
GRID*               4367               0-9.501747155E+007.9217352367E+01+
*       2.0000000000E+01               0
GRID*               4368               0-2.027930437E+015.3529203281E+01+
*       2.0000000000E+01               0
GRID*               4369               0-2.258874770E+015.4349695672E+01+
*       2.0000000000E+01               0
GRID*               4370               0-1.723090835E+015.7144930345E+01+
*       2.0000000000E+01               0
GRID*               4371               0-1.197527258E+016.2406929039E+01+
*       2.0000000000E+01               0
GRID*               4372               0-1.544269818E+016.0485334678E+01+
*       2.0000000000E+01               0
GRID*               4373               0-2.064968835E+016.0756320368E+01+
*       2.0000000000E+01               0
GRID*               4374               0-1.539405258E+016.6018319062E+01+
*       2.0000000000E+01               0
GRID*               4375               0-2.209985031E+016.4647584628E+01+
*       2.0000000000E+01               0
GRID*               4376               0-2.388806048E+016.1307180295E+01+
*       2.0000000000E+01               0
GRID*               4377               0-2.048556368E+016.8614808189E+01+
*       2.0000000000E+01               0
GRID*               4378               0-2.372393581E+016.9165668115E+01+
*       2.0000000000E+01               0
GRID*               4379               0-3.185286037E+017.6166019957E+01+
*       2.0000000000E+01               0
GRID*               4380               0-3.639677760E+017.4090986795E+01+
*       2.0000000000E+01               0
GRID*               4381               0-2.692685989E+017.7335800062E+01+
*       2.0000000000E+01               0
GRID*               4382               0-2.703564967E+017.1963111571E+01+
*       2.0000000000E+01               0
GRID*               4383               0-2.864993630E+016.7995888010E+01+
*       2.0000000000E+01               0
GRID*               4384               0-4.473624691E+016.9479213521E+01+
*       2.0000000000E+01               0
GRID*               4385               0-4.045848542E+017.2058690198E+01+
*       2.0000000000E+01               0
GRID*               4386               0-4.383764166E+016.4112958065E+01+
*       2.0000000000E+01               0
GRID*               4387               0-4.341031450E+015.9651002345E+01+
*       2.0000000000E+01               0
GRID*               4388               0-3.965773862E+016.2266782553E+01+
*       2.0000000000E+01               0
GRID*               4389               0-4.848882278E+016.6863433313E+01+
*       2.0000000000E+01               0
GRID*               4390               0-5.244465960E+016.3813138790E+01+
*       2.0000000000E+01               0
GRID*               4391               0-2.847509873E+016.3044835674E+01+
*       2.0000000000E+01               0
GRID*               4392               0-2.702493677E+015.9153571414E+01+
*       2.0000000000E+01               0
GRID*               4393               0-3.178681259E+016.5842279129E+01+
*       2.0000000000E+01               0
GRID*               4394               0-3.602335797E+016.8761034870E+01+
*       2.0000000000E+01               0
GRID*               4395               0-3.584852040E+016.3809982533E+01+
*       2.0000000000E+01               0
GRID*               4396               0-2.536080171E+015.5497918265E+01+
*       2.0000000000E+01               0
GRID*               4397               0-3.542119324E+015.9348026813E+01+
*       2.0000000000E+01               0
GRID*               4398               0-3.659865197E+015.6245225624E+01+
*       2.0000000000E+01               0
GRID*               4399               0-3.278943376E+015.7788425604E+01+
*       2.0000000000E+01               0
GRID*               4400               0-2.994783997E+015.7235573644E+01+
*       2.0000000000E+01               0
GRID*               4401               0-3.112529870E+015.4132772456E+01+
*       2.0000000000E+01               0
GRID*               4402               0-4.163190119E+011.1425054427E+01+
*       2.0000000000E+01               0
GRID*               4403               0-4.028994169E+011.5536372022E+01+
*       2.0000000000E+01               0
GRID*               4404               0-5.415573741E+018.8240373959E+00+
*       2.0000000000E+01               0
GRID*               4405               0-5.684583920E+011.0521378791E+01+
*       2.0000000000E+01               0
GRID*               4406               0-5.847380652E+017.6458644002E+00+
*       2.0000000000E+01               0
GRID*               4407               0-4.267623587E+018.0599881637E+00+
*       2.0000000000E+01               0
GRID*               4408               0-4.516356124E+011.1257143620E+01+
*       2.0000000000E+01               0
GRID*               4409               0-4.208942001E+015.0309193783E+00+
*       2.0000000000E+01               0
GRID*               4410               0-4.562108006E+014.8630085720E+00+
*       2.0000000000E+01               0
GRID*               4411               0-4.822374632E+015.7720778031E+00+
*       2.0000000000E+01               0
GRID*               4412               0-4.763693046E+012.7430090177E+00+
*       2.0000000000E+01               0
GRID*               4413               0-4.936783301E+019.7958145722E+00+
*       2.0000000000E+01               0
GRID*               4414               0-4.832349833E+011.3160880835E+01+
*       2.0000000000E+01               0
GRID*               4415               0-5.138368340E+017.6758150179E+00+
*       2.0000000000E+01               0
GRID*               4416               0-6.071390463E+011.3633192697E+01+
*       2.0000000000E+01               0
GRID*               4417               0-6.458469715E+011.5853135327E+01+
*       2.0000000000E+01               0
GRID*               4418               0-6.503470084E+011.1563148425E+01+
*       2.0000000000E+01               0
GRID*               4419               0-2.977978125E+013.2308819688E+01+
*       2.0000000000E+01               0
GRID*               4420               0-3.272381500E+012.9141459508E+01+
*       2.0000000000E+01               0
GRID*               4421               0-2.959095685E+013.5745272641E+01+
*       2.0000000000E+01               0
GRID*               4422               0-3.687676467E+012.6619307689E+01+
*       2.0000000000E+01               0
GRID*               4423               0-3.752979048E+013.1855446882E+01+
*       2.0000000000E+01               0
GRID*               4424               0-5.639583552E+011.4811365693E+01+
*       2.0000000000E+01               0
GRID*               4425               0-5.132379604E+011.7017877630E+01+
*       2.0000000000E+01               0
GRID*               4426               0-5.519186147E+012.0129691536E+01+
*       2.0000000000E+01               0
GRID*               4427               0-3.866679222E+011.8842587376E+01+
*       2.0000000000E+01               0
GRID*               4428               0-4.249607709E+011.7928425237E+01+
*       2.0000000000E+01               0
GRID*               4429               0-3.647185841E+012.2569980453E+01+
*       2.0000000000E+01               0
GRID*               4430               0-4.127783389E+012.5283967827E+01+
*       2.0000000000E+01               0
GRID*               4431               0-4.549637481E+012.1785422032E+01+
*       2.0000000000E+01               0
GRID*               4432               0-4.590128107E+012.5834749268E+01+
*       2.0000000000E+01               0
GRID*               4433               0-4.711952427E+011.8479206678E+01+
*       2.0000000000E+01               0
GRID*               4434               0-6.439385449E+012.0290608524E+01+
*       2.0000000000E+01               0
GRID*               4435               0-6.017427722E+012.2797349783E+01+
*       2.0000000000E+01               0
GRID*               4436               0-6.430423077E+012.5164778709E+01+
*       2.0000000000E+01               0
GRID*               4437               0-6.871465070E+011.8220564252E+01+
*       2.0000000000E+01               0
GRID*               4438               0-7.266244825E+012.0675906983E+01+
*       2.0000000000E+01               0
GRID*               4439               0-7.285329091E+011.6238433786E+01+
*       2.0000000000E+01               0
GRID*               4440               0-5.510223775E+012.5003861721E+01+
*       2.0000000000E+01               0
GRID*               4441               0-5.071200708E+012.7959072734E+01+
*       2.0000000000E+01               0
GRID*               4442               0-5.569442284E+013.0626730981E+01+
*       2.0000000000E+01               0
GRID*               4443               0-4.649346616E+013.1457618528E+01+
*       2.0000000000E+01               0
GRID*               4444               0-4.201807390E+013.4627518612E+01+
*       2.0000000000E+01               0
GRID*               4445               0-4.682879990E+013.6751842077E+01+
*       2.0000000000E+01               0
GRID*               4446               0-3.786512422E+013.7149670431E+01+
*       2.0000000000E+01               0
GRID*               4447               0-2.865549238E+014.0741708436E+01+
*       2.0000000000E+01               0
GRID*               4448               0-3.142754651E+014.1889930494E+01+
*       2.0000000000E+01               0
GRID*               4449               0-2.819988121E+013.8456744549E+01+
*       2.0000000000E+01               0
GRID*               4450               0-3.198576516E+013.7089070609E+01+
*       2.0000000000E+01               0
GRID*               4451               0-3.280500443E+014.0386880517E+01+
*       2.0000000000E+01               0
GRID*               4452               0-3.363786140E+014.2476268494E+01+
*       2.0000000000E+01               0
GRID*               4453               0-3.419608006E+013.7675408608E+01+
*       2.0000000000E+01               0
GRID*               4454               0-3.868436348E+014.0447480339E+01+
*       2.0000000000E+01               0
GRID*               4455               0-3.615953327E+014.3614979541E+01+
*       2.0000000000E+01               0
GRID*               4456               0-3.478207535E+014.5118029518E+01+
*       2.0000000000E+01               0
GRID*               4457               0-4.863570538E+014.7596833927E+01+
*       2.0000000000E+01               0
GRID*               4458               0-4.969511342E+015.2991633417E+01+
*       2.0000000000E+01               0
GRID*               4459               0-5.376435012E+014.9617517906E+01+
*       2.0000000000E+01               0
GRID*               4460               0-3.982857743E+014.3089241363E+01+
*       2.0000000000E+01               0
GRID*               4461               0-4.093510795E+014.8613845001E+01+
*       2.0000000000E+01               0
GRID*               4462               0-4.345993816E+014.5446345799E+01+
*       2.0000000000E+01               0
GRID*               4463               0-4.752917486E+014.2072230288E+01+
*       2.0000000000E+01               0
GRID*               4464               0-5.200456712E+013.8902330205E+01+
*       2.0000000000E+01               0
GRID*               4465               0-5.852022502E+015.1541348402E+01+
*       2.0000000000E+01               0
GRID*               4466               0-5.746081697E+014.6146548912E+01+
*       2.0000000000E+01               0
GRID*               4467               0-6.334024117E+015.3618396349E+01+
*       2.0000000000E+01               0
GRID*               4468               0-6.650239086E+014.9751388437E+01+
*       2.0000000000E+01               0
GRID*               4469               0-5.964377432E+015.7089365343E+01+
*       2.0000000000E+01               0
GRID*               4470               0-5.678755098E+014.0955312508E+01+
*       2.0000000000E+01               0
GRID*               4471               0-6.154342587E+014.2879143004E+01+
*       2.0000000000E+01               0
GRID*               4472               0-5.608717603E+013.5634924297E+01+
*       2.0000000000E+01               0
GRID*               4473               0-6.047740669E+013.2679713284E+01+
*       2.0000000000E+01               0
GRID*               4474               0-7.628388191E+012.2472343897E+01+
*       2.0000000000E+01               0
GRID*               4475               0-7.214524169E+012.4454474363E+01+
*       2.0000000000E+01               0
GRID*               4476               0-7.986096081E+012.5451902533E+01+
*       2.0000000000E+01               0
GRID*               4477               0-7.818221593E+013.0156662315E+01+
*       2.0000000000E+01               0
GRID*               4478               0-8.037816736E+012.1673335153E+01+
*       2.0000000000E+01               0
GRID*               4479               0-6.884151315E+012.7098830782E+01+
*       2.0000000000E+01               0
GRID*               4480               0-7.246294681E+012.8895267696E+01+
*       2.0000000000E+01               0
GRID*               4481               0-6.462193589E+012.9605572042E+01+
*       2.0000000000E+01               0
GRID*               4482               0-6.501468907E+013.4613765358E+01+
*       2.0000000000E+01               0
GRID*               4483               0-6.594387166E+014.4542327276E+01+
*       2.0000000000E+01               0
GRID*               4484               0-6.527060567E+013.9351090872E+01+
*       2.0000000000E+01               0
GRID*               4485               0-7.022957066E+014.6223336304E+01+
*       2.0000000000E+01               0
GRID*               4486               0-7.293030046E+014.2021074807E+01+
*       2.0000000000E+01               0
GRID*               4487               0-6.941513486E+013.6276949629E+01+
*       2.0000000000E+01               0
GRID*               4488               0-7.513440397E+013.7538344248E+01+
*       2.0000000000E+01               0
GRID*               4489               0-7.487848738E+013.2801018734E+01+
*       2.0000000000E+01               0
GRID*               4490               0-3.350508518E+015.2306560977E+01+
*       2.0000000000E+01               0
GRID*               4491               0-5.606142992E+016.0570708559E+01+
*       2.0000000000E+01               0
GRID*               4492               0-3.517351255E+014.8092119052E+01+
*       2.0000000000E+01               0
GRID*               4493               0-3.523017669E+015.0921503944E+01+
*       2.0000000000E+01               0
GRID*               4494               0-3.736041136E+014.9086125457E+01+
*       2.0000000000E+01               0
GRID*               4495               0-3.569198400E+015.3300567383E+01+
*       2.0000000000E+01               0
GRID*               4496               0-3.832374348E+015.4860168591E+01+
*       2.0000000000E+01               0
GRID*               4497               0-5.120698785E+015.8254747627E+01+
*       2.0000000000E+01               0
GRID*               4498               0-4.607834311E+015.6234063648E+01+
*       2.0000000000E+01               0
GRID*               4499               0-4.099177209E+015.1443229894E+01+
*       2.0000000000E+01               0
GRID*               4500               0-4.189844007E+015.4387888135E+01+
*       2.0000000000E+01               0
GRID*               4501               0-8.150965997E+011.6807877748E+01+
*       2.0000000000E+01               0
GRID*               4502               0-8.202195245E+011.2186358677E+01+
*       2.0000000000E+01               0
GRID*               4503               0-8.259144784E+017.2236346558E+00+
*       2.0000000000E+01               0
GRID*               4504               0-7.731338094E+011.4072257446E+01+
*       2.0000000000E+01               0
GRID*               4505               0-7.336558339E+011.1616914715E+01+
*       2.0000000000E+01               0
GRID*               4506               0-8.299314754E+01-2.459065395E+00+
*       2.0000000000E+01               0
GRID*               4507               0-8.299307677E+012.5362279883E+00+
*       2.0000000000E+01               0
GRID*               4508               0-7.865225637E+01-4.306101651E+00+
*       2.0000000000E+01               0
GRID*               4509               0-7.507513923E+01-6.502435081E+00+
*       2.0000000000E+01               0
GRID*               4510               0-7.505181414E+01-2.120408389E+00+
*       2.0000000000E+01               0
GRID*               4511               0-8.301647264E+01-6.841092087E+00+
*       2.0000000000E+01               0
GRID*               4512               0-8.244711786E+01-1.180383224E+01+
*       2.0000000000E+01               0
GRID*               4513               0-6.900284416E+018.9482372201E+00+
*       2.0000000000E+01               0
GRID*               4514               0-6.513205164E+016.7282945903E+00+
*       2.0000000000E+01               0
GRID*               4515               0-7.346293419E+016.7820608803E+00+
*       2.0000000000E+01               0
GRID*               4516               0-7.822730234E+014.7633317083E+00+
*       2.0000000000E+01               0
GRID*               4517               0-7.386456312E+012.0946542129E+00+
*       2.0000000000E+01               0
GRID*               4518               0-6.085359303E+015.8196530869E+00+
*       2.0000000000E+01               0
GRID*               4519               0-6.482173635E+013.2047418815E+00+
*       2.0000000000E+01               0
GRID*               4520               0-7.028744598E+01-1.016792172E-01+
*       2.0000000000E+01               0
GRID*               4521               0-6.833620587E+01-3.159745426E+00+
*       2.0000000000E+01               0
GRID*               4522               0-6.714895485E+011.0553171757E+00+
*       2.0000000000E+01               0
GRID*               4523               0-6.287049624E+011.4667567229E-01+
*       2.0000000000E+01               0
GRID*               4524               0-6.247905873E+01-2.827413536E+00+
*       2.0000000000E+01               0
GRID*               4525               0-6.539365442E+01-5.044196929E+00+
*       2.0000000000E+01               0
GRID*               4526               0-6.267499841E+01-5.868861432E+00+
*       2.0000000000E+01               0
GRID*               4527               0-6.853214555E+01-6.201193322E+00+
*       2.0000000000E+01               0
GRID*               4528               0-7.166562779E+01-7.657186206E+00+
*       2.0000000000E+01               0
GRID*               4529               0-6.872307634E+01-9.541637709E+00+
*       2.0000000000E+01               0
GRID*               4530               0-8.152243700E+01-1.601444110E+01+
*       2.0000000000E+01               0
GRID*               4531               0-7.775090061E+01-1.289873720E+01+
*       2.0000000000E+01               0
GRID*               4532               0-8.039108225E+01-2.087993056E+01+
*       2.0000000000E+01               0
GRID*               4533               0-7.526607002E+01-9.842879468E+00+
*       2.0000000000E+01               0
GRID*               4534               0-7.434138916E+01-1.405348832E+01+
*       2.0000000000E+01               0
GRID*               4535               0-4.724549323E+01-2.310802957E-01+
*       2.0000000000E+01               0
GRID*               4536               0-7.867303438E+01-2.535719349E+01+
*       2.0000000000E+01               0
GRID*               4537               0-7.699442280E+01-3.006200084E+01+
*       2.0000000000E+01               0
GRID*               4538               0-5.925715303E+01-7.272847749E+00+
*       2.0000000000E+01               0
GRID*               4539               0-5.648509922E+01-8.421070221E+00+
*       2.0000000000E+01               0
GRID*               4540               0-7.510817188E+01-2.158660898E+01+
*       2.0000000000E+01               0
GRID*               4541               0-6.217174871E+01-9.489631142E+00+
*       2.0000000000E+01               0
GRID*               4542               0-7.164626853E+01-1.715791194E+01+
*       2.0000000000E+01               0
GRID*               4543               0-6.916143795E+01-1.410205420E+01+
*       2.0000000000E+01               0
GRID*               4544               0-6.992822066E+01-2.163517486E+01+
*       2.0000000000E+01               0
GRID*               4545               0-6.602795571E+01-1.264606132E+01+
*       2.0000000000E+01               0
GRID*               4546               0-6.261011032E+01-1.405004764E+01+
*       2.0000000000E+01               0
GRID*               4547               0-4.669743943E+01-1.294963887E+01+
*       2.0000000000E+01               0
GRID*               4548               0-4.744517668E+01-8.636186119E+00+
*       2.0000000000E+01               0
GRID*               4549               0-4.530060541E+01-1.764612409E+01+
*       2.0000000000E+01               0
GRID*               4550               0-4.394788034E+01-2.170452686E+01+
*       2.0000000000E+01               0
GRID*               4551               0-4.907288459E+01-1.610518617E+01+
*       2.0000000000E+01               0
GRID*               4552               0-5.340534379E+01-1.546487256E+01+
*       2.0000000000E+01               0
GRID*               4553               0-5.200850978E+01-2.016135778E+01+
*       2.0000000000E+01               0
GRID*               4554               0-5.754743616E+01-1.520733081E+01+
*       2.0000000000E+01               0
GRID*               4555               0-6.140364315E+01-1.836376099E+01+
*       2.0000000000E+01               0
GRID*               4556               0-5.461181096E+01-1.115115920E+01+
*       2.0000000000E+01               0
GRID*               4557               0-4.693867851E+01-4.079885833E+00+
*       2.0000000000E+01               0
GRID*               4558               0-5.234300685E+01-8.678611966E+00+
*       2.0000000000E+01               0
GRID*               4559               0-4.996322043E+01-6.852400664E+00+
*       2.0000000000E+01               0
GRID*               4560               0-6.464497964E+01-2.237691735E+01+
*       2.0000000000E+01               0
GRID*               4561               0-5.958230547E+01-2.353420053E+01+
*       2.0000000000E+01               0
GRID*               4562               0-6.810688299E+01-2.680561440E+01+
*       2.0000000000E+01               0
GRID*               4563               0-5.418820067E+01-2.446250837E+01+
*       2.0000000000E+01               0
GRID*               4564               0-4.985574146E+01-2.510282198E+01+
*       2.0000000000E+01               0
GRID*               4565               0-5.742953716E+01-2.847566473E+01+
*       2.0000000000E+01               0
GRID*               4566               0-3.980998821E+01-3.440710922E+01+
*       2.0000000000E+01               0
GRID*               4567               0-3.827880991E+01-3.832224165E+01+
*       2.0000000000E+01               0
GRID*               4568               0-4.609941925E+01-2.411641266E+01+
*       2.0000000000E+01               0
GRID*               4569               0-4.237124902E+01-2.501926813E+01+
*       2.0000000000E+01               0
GRID*               4570               0-4.827911014E+01-2.841756326E+01+
*       2.0000000000E+01               0
GRID*               4571               0-4.841218914E+01-3.126528662E+01+
*       2.0000000000E+01               0
GRID*               4572               0-4.465586693E+01-3.027887730E+01+
*       2.0000000000E+01               0
GRID*               4573               0-4.140242217E+01-2.936684118E+01+
*       2.0000000000E+01               0
GRID*               4574               0-4.153550117E+01-3.221456455E+01+
*       2.0000000000E+01               0
GRID*               4575               0-4.306343296E+01-3.531914534E+01+
*       2.0000000000E+01               0
GRID*               4576               0-4.077121125E+01-7.243332428E+01+
*       2.0000000000E+01               0
GRID*               4577               0-4.504889966E+01-6.985372641E+01+
*       2.0000000000E+01               0
GRID*               4578               0-3.676048085E+01-6.956957357E+01+
*       2.0000000000E+01               0
GRID*               4579               0-3.308700925E+01-6.742481936E+01+
*       2.0000000000E+01               0
GRID*               4580               0-3.703485322E+01-6.533440917E+01+
*       2.0000000000E+01               0
GRID*               4581               0-3.682336729E+01-7.452373447E+01+
*       2.0000000000E+01               0
GRID*               4582               0-3.227950885E+01-7.659889637E+01+
*       2.0000000000E+01               0
GRID*               4583               0-3.658743762E+01-6.088953875E+01+
*       2.0000000000E+01               0
GRID*               4584               0-4.026090922E+01-6.303429296E+01+
*       2.0000000000E+01               0
GRID*               4585               0-3.313767810E+01-5.970506620E+01+
*       2.0000000000E+01               0
GRID*               4586               0-3.636373410E+01-5.740495000E+01+
*       2.0000000000E+01               0
GRID*               4587               0-4.885802054E+01-6.711642195E+01+
*       2.0000000000E+01               0
GRID*               4588               0-5.281377094E+01-6.406601535E+01+
*       2.0000000000E+01               0
GRID*               4589               0-4.451744570E+01-6.474185893E+01+
*       2.0000000000E+01               0
GRID*               4590               0-4.407003010E+01-6.029698851E+01+
*       2.0000000000E+01               0
GRID*               4591               0-7.152505579E+01-3.073904859E+01+
*       2.0000000000E+01               0
GRID*               4592               0-6.624181476E+01-3.148079108E+01+
*       2.0000000000E+01               0
GRID*               4593               0-7.512935457E+01-3.473717752E+01+
*       2.0000000000E+01               0
GRID*               4594               0-7.292537807E+01-3.921997052E+01+
*       2.0000000000E+01               0
GRID*               4595               0-3.774522553E+01-4.158093372E+01+
*       2.0000000000E+01               0
GRID*               4596               0-3.665701442E+01-4.468218523E+01+
*       2.0000000000E+01               0
GRID*               4597               0-4.080433562E+01-4.077038209E+01+
*       2.0000000000E+01               0
GRID*               4598               0-6.105499683E+01-3.240731558E+01+
*       2.0000000000E+01               0
GRID*               4599               0-5.566089202E+01-3.333562343E+01+
*       2.0000000000E+01               0
GRID*               4600               0-6.447316963E+01-3.634074977E+01+
*       2.0000000000E+01               0
GRID*               4601               0-4.504520198E+01-3.872921951E+01+
*       2.0000000000E+01               0
GRID*               4602               0-4.451161761E+01-4.198791158E+01+
*       2.0000000000E+01               0
GRID*               4603               0-4.677071495E+01-3.653667483E+01+
*       2.0000000000E+01               0
GRID*               4604               0-5.039395816E+01-3.467536079E+01+
*       2.0000000000E+01               0
GRID*               4605               0-5.401941783E+01-3.860701164E+01+
*       2.0000000000E+01               0
GRID*               4606               0-7.101930460E+01-4.364733942E+01+
*       2.0000000000E+01               0
GRID*               4607               0-6.831869385E+01-4.784967744E+01+
*       2.0000000000E+01               0
GRID*               4608               0-6.775391409E+01-3.984159417E+01+
*       2.0000000000E+01               0
GRID*               4609               0-6.256709616E+01-4.076811868E+01+
*       2.0000000000E+01               0
GRID*               4610               0-3.524076430E+01-4.822449666E+01+
*       2.0000000000E+01               0
GRID*               4611               0-3.484932716E+01-5.119858602E+01+
*       2.0000000000E+01               0
GRID*               4612               0-3.885450112E+01-4.757138558E+01+
*       2.0000000000E+01               0
GRID*               4613               0-4.351497439E+01-4.763626158E+01+
*       2.0000000000E+01               0
GRID*               4614               0-4.209872427E+01-5.117857300E+01+
*       2.0000000000E+01               0
GRID*               4615               0-4.775584076E+01-4.559509900E+01+
*       2.0000000000E+01               0
GRID*               4616               0-5.795378276E+01-4.200454401E+01+
*       2.0000000000E+01               0
GRID*               4617               0-6.123452723E+01-4.550538841E+01+
*       2.0000000000E+01               0
GRID*               4618               0-5.268684890E+01-4.334428137E+01+
*       2.0000000000E+01               0
GRID*               4619               0-5.169020569E+01-4.899263137E+01+
*       2.0000000000E+01               0
GRID*               4620               0-6.430667552E+01-4.790815100E+01+
*       2.0000000000E+01               0
GRID*               4621               0-5.969336212E+01-4.914457633E+01+
*       2.0000000000E+01               0
GRID*               4622               0-6.677752874E+01-5.148886536E+01+
*       2.0000000000E+01               0
GRID*               4623               0-6.361548861E+01-5.535596287E+01+
*       2.0000000000E+01               0
GRID*               4624               0-5.669855785E+01-6.113105969E+01+
*       2.0000000000E+01               0
GRID*               4625               0-5.221135350E+01-5.906959881E+01+
*       2.0000000000E+01               0
GRID*               4626               0-6.028080361E+01-5.764961498E+01+
*       2.0000000000E+01               0
GRID*               4627               0-5.943082541E+01-5.384099104E+01+
*       2.0000000000E+01               0
GRID*               4628               0-3.517611279E+01-5.366708723E+01+
*       2.0000000000E+01               0
GRID*               4629               0-3.862587231E+01-5.485155978E+01+
*       2.0000000000E+01               0
GRID*               4630               0-3.258718896E+01-5.375197624E+01+
*       2.0000000000E+01               0
GRID*               4631               0-5.635867712E+01-5.143822844E+01+
*       2.0000000000E+01               0
GRID*               4632               0-5.142766898E+01-5.368904607E+01+
*       2.0000000000E+01               0
GRID*               4633               0-4.754288207E+01-5.662400173E+01+
*       2.0000000000E+01               0
GRID*               4634               0-4.328634558E+01-5.491643577E+01+
*       2.0000000000E+01               0
GRID*               4635               0-2.981513508E+01-5.490019882E+01+
*       2.0000000000E+01               0
GRID*               4636               0-3.048438592E+01-5.783550382E+01+
*       2.0000000000E+01               0
GRID*               4637               0-2.738554642E+01-5.651522519E+01+
*       2.0000000000E+01               0
GRID*               4638               0-3.070808944E+01-6.132009257E+01+
*       2.0000000000E+01               0
GRID*               4639               0-2.976024711E+01-6.454697140E+01+
*       2.0000000000E+01               0
GRID*               4640               0-2.710695493E+01-6.267740902E+01+
*       2.0000000000E+01               0
GRID*               4641               0-2.800188628E+01-7.813145171E+01+
*       2.0000000000E+01               0
GRID*               4642               0-2.853501432E+01-7.319253909E+01+
*       2.0000000000E+01               0
GRID*               4643               0-2.325109475E+01-7.967512565E+01+
*       2.0000000000E+01               0
GRID*               4644               0-2.948587474E+01-6.878213581E+01+
*       2.0000000000E+01               0
GRID*               4645               0-2.520825217E+01-7.031469114E+01+
*       2.0000000000E+01               0
GRID*               4646               0-2.327032869E+01-4.110500242E+01+
*       2.0000000000E+01               0
GRID*               4647               01.3004410229E+01-5.010760519E+01+
*       2.0000000000E+01               0
GRID*               4648               01.0449722728E+01-5.319049367E+01+
*       2.0000000000E+01               0
GRID*               4649               01.4304548782E+01-5.411865067E+01+
*       2.0000000000E+01               0
GRID*               4650               01.2116819873E+01-4.655147241E+01+
*       2.0000000000E+01               0
GRID*               4651               01.5971645927E+01-4.747962940E+01+
*       2.0000000000E+01               0
GRID*               4652               01.0964214731E+01-4.166678845E+01+
*       2.0000000000E+01               0
GRID*               4653               01.5119813621E+01-4.047055386E+01+
*       2.0000000000E+01               0
GRID*               4654               07.9969790337E+00-4.429476424E+01+
*       2.0000000000E+01               0
GRID*               4655               01.8394250274E+01-4.500098993E+01+
*       2.0000000000E+01               0
GRID*               4656               01.9281840630E+01-4.855712271E+01+
*       2.0000000000E+01               0
GRID*               4657               02.1418583888E+01-3.672030591E+01+
*       2.0000000000E+01               0
GRID*               4658               02.3011492513E+01-4.119145687E+01+
*       2.0000000000E+01               0
GRID*               4659               01.7616818497E+01-3.878205086E+01+
*       2.0000000000E+01               0
GRID*               4660               02.0891255149E+01-4.331248693E+01+
*       2.0000000000E+01               0
GRID*               4661               01.7581060447E+01-4.223499362E+01+
*       2.0000000000E+01               0
GRID*               4662               01.7724690581E+00-6.322114296E+01+
*       2.0000000000E+01               0
GRID*               4663               04.7204336217E+00-5.983522665E+01+
*       2.0000000000E+01               0
GRID*               4664               03.7701720111E-01-5.909379043E+01+
*       2.0000000000E+01               0
GRID*               4665               0-1.164219304E+00-6.672130872E+01+
*       2.0000000000E+01               0
GRID*               4666               03.1791971163E+00-6.746274495E+01+
*       2.0000000000E+01               0
GRID*               4667               07.5374215227E+00-5.645470664E+01+
*       2.0000000000E+01               0
GRID*               4668               06.2372829701E+00-5.244366116E+01+
*       2.0000000000E+01               0
GRID*               4669               08.9328733797E+00-6.058205917E+01+
*       2.0000000000E+01               0
GRID*               4670               03.7714249238E+00-4.341274013E+01+
*       2.0000000000E+01               0
GRID*               4671               04.9240300656E+00-4.829742408E+01+
*       2.0000000000E+01               0
GRID*               4672               0-5.454626387E-01-4.368767555E+01+
*       2.0000000000E+01               0
GRID*               4673               0-4.830617415E+00-4.293438370E+01+
*       2.0000000000E+01               0
GRID*               4674               0-9.104794654E+00-4.227490677E+01+
*       2.0000000000E+01               0
GRID*               4675               0-3.586678820E+00-4.666210812E+01+
*       2.0000000000E+01               0
GRID*               4676               02.0117288602E+00-5.156163705E+01+
*       2.0000000000E+01               0
GRID*               4677               0-2.273017316E+00-5.072325761E+01+
*       2.0000000000E+01               0
GRID*               4678               0-6.558172092E+00-4.996996577E+01+
*       2.0000000000E+01               0
GRID*               4679               0-9.597644117E-01-5.486949469E+01+
*       2.0000000000E+01               0
GRID*               4680               0-3.907728975E+00-5.825541100E+01+
*       2.0000000000E+01               0
GRID*               4681               0-1.546101740E+01-4.774201060E+01+
*       2.0000000000E+01               0
GRID*               4682               0-1.943133622E+01-4.667024781E+01+
*       2.0000000000E+01               0
GRID*               4683               0-1.798640344E+01-5.099926065E+01+
*       2.0000000000E+01               0
GRID*               4684               0-1.238889189E+01-4.466090702E+01+
*       2.0000000000E+01               0
GRID*               4685               0-1.362185294E+01-4.102699752E+01+
*       2.0000000000E+01               0
GRID*               4686               0-1.094395911E+01-4.898991985E+01+
*       2.0000000000E+01               0
GRID*               4687               0-9.630297606E+00-5.305106935E+01+
*       2.0000000000E+01               0
GRID*               4688               0-4.245124295E+00-7.025322373E+01+
*       2.0000000000E+01               0
GRID*               4689               0-7.280193394E+00-7.398663045E+01+
*       2.0000000000E+01               0
GRID*               4690               0-2.792560344E+00-7.469631743E+01+
*       2.0000000000E+01               0
GRID*               4691               0-5.651852353E+00-6.601162175E+01+
*       2.0000000000E+01               0
GRID*               4692               0-7.022755939E+00-6.160195098E+01+
*       2.0000000000E+01               0
GRID*               4693               0-1.010366093E+01-6.513386599E+01+
*       2.0000000000E+01               0
GRID*               4694               0-8.359537552E+00-5.737765524E+01+
*       2.0000000000E+01               0
GRID*               4695               0-1.274532457E+01-5.639760933E+01+
*       2.0000000000E+01               0
GRID*               4696               0-1.382215480E+01-8.176636273E+01+
*       2.0000000000E+01               0
GRID*               4697               0-9.140422885E+00-8.251950196E+01+
*       2.0000000000E+01               0
GRID*               4698               0-1.050936135E+01-7.767658493E+01+
*       2.0000000000E+01               0
GRID*               4699               0-1.871794551E+01-8.077430129E+01+
*       2.0000000000E+01               0
GRID*               4700               0-1.972424251E+01-7.582427006E+01+
*       2.0000000000E+01               0
GRID*               4701               0-1.196192530E+01-7.323349123E+01+
*       2.0000000000E+01               0
GRID*               4702               0-2.101743406E+01-7.122226571E+01+
*       2.0000000000E+01               0
GRID*               4703               0-2.196829448E+01-6.681186242E+01+
*       2.0000000000E+01               0
GRID*               4704               0-1.648428482E+01-7.232144134E+01+
*       2.0000000000E+01               0
GRID*               4705               0-1.325511686E+01-6.863148687E+01+
*       2.0000000000E+01               0
GRID*               4706               0-2.379712888E+01-5.602143176E+01+
*       2.0000000000E+01               0
GRID*               4707               0-2.141734223E+01-5.419522060E+01+
*       2.0000000000E+01               0
GRID*               4708               0-2.446637973E+01-5.895673676E+01+
*       2.0000000000E+01               0
GRID*               4709               0-2.351853739E+01-6.218361559E+01+
*       2.0000000000E+01               0
GRID*               4710               0-1.932771928E+01-6.309119016E+01+
*       2.0000000000E+01               0
GRID*               4711               0-1.744702341E+01-5.526698338E+01+
*       2.0000000000E+01               0
GRID*               4712               0-1.617626336E+01-5.959356928E+01+
*       2.0000000000E+01               0
GRID*               4713               0-1.462602045E+01-6.422181610E+01+
*       2.0000000000E+01               0
GRID*               4714               0-1.765379357E+01-3.946445400E+01+
*       2.0000000000E+01               0
GRID*               4715               0-1.982277324E+01-4.369615826E+01+
*       2.0000000000E+01               0
GRID*               4716               0-2.035350563E+01-4.082184193E+01+
*       2.0000000000E+01               0
GRID*               4717               02.0058695277E+01-5.145529727E+01+
*       2.0000000000E+01               0
GRID*               4718               0-4.163457009E+00-8.294701302E+01+
*       2.0000000000E+01               0
GRID*               4719               01.8415815343E+01-5.460504427E+01+
*       2.0000000000E+01               0
GRID*               4720               02.1615274338E+01-5.502457936E+01+
*       2.0000000000E+01               0
GRID*               4721               01.5861127842E+01-5.768793276E+01+
*       2.0000000000E+01               0
GRID*               4722               0-1.296628030E+00-7.884299602E+01+
*       2.0000000000E+01               0
GRID*               4723               01.7384410680E+00-7.510958929E+01+
*       2.0000000000E+01               0
GRID*               4724               03.6754440375E-01-8.336028488E+01+
*       2.0000000000E+01               0
GRID*               4725               04.5236967288E+00-7.158851267E+01+
*       2.0000000000E+01               0
GRID*               4726               07.4603850911E+00-6.808834691E+01+
*       2.0000000000E+01               0
GRID*               4727               06.0196290428E+00-7.573519126E+01+
*       2.0000000000E+01               0
GRID*               4728               01.3300762256E+01-6.126590742E+01+
*       2.0000000000E+01               0
GRID*               4729               01.7412028817E+01-6.175230103E+01+
*       2.0000000000E+01               0
GRID*               4730               01.0483774355E+01-6.464642744E+01+
*       2.0000000000E+01               0
GRID*               4731               01.1828273967E+01-6.877219517E+01+
*       2.0000000000E+01               0
GRID*               4732               05.7304474465E+01-1.428364594E+01+
*       2.0000000000E+01               0
GRID*               4733               05.3242624189E+01-1.662894058E+01+
*       2.0000000000E+01               0
GRID*               4734               05.7396898542E+01-1.923570211E+01+
*       2.0000000000E+01               0
GRID*               4735               06.1472967920E+01-1.269828762E+01+
*       2.0000000000E+01               0
GRID*               4736               06.5452550163E+01-1.435104425E+01+
*       2.0000000000E+01               0
GRID*               4737               06.5466769265E+01-1.015892441E+01+
*       2.0000000000E+01               0
GRID*               4738               05.4466952418E+01-8.812703710E+00+
*       2.0000000000E+01               0
GRID*               4739               05.1694898413E+01-7.664481332E+00+
*       2.0000000000E+01               0
GRID*               4740               05.7318693567E+01-1.009152609E+01+
*       2.0000000000E+01               0
GRID*               4741               05.8635445872E+01-7.227345389E+00+
*       2.0000000000E+01               0
GRID*               4742               04.7695569402E+01-5.841502681E+00+
*       2.0000000000E+01               0
GRID*               4743               04.9150871102E+01-9.853905764E+00+
*       2.0000000000E+01               0
GRID*               4744               04.5088439978E+01-4.074463287E+00+
*       2.0000000000E+01               0
GRID*               4745               04.9121414548E+01-1.913473264E+01+
*       2.0000000000E+01               0
GRID*               4746               04.4928706610E+01-2.151018726E+01+
*       2.0000000000E+01               0
GRID*               4747               04.9142340328E+01-2.395645137E+01+
*       2.0000000000E+01               0
GRID*               4748               04.9028990471E+01-1.418267647E+01+
*       2.0000000000E+01               0
GRID*               4749               04.5029661460E+01-1.235969782E+01+
*       2.0000000000E+01               0
GRID*               4750               04.1588318802E+01-1.022215284E+01+
*       2.0000000000E+01               0
GRID*               4751               04.1466438172E+01-1.455092355E+01+
*       2.0000000000E+01               0
GRID*               4752               04.2477986316E+01-5.990489077E+00+
*       2.0000000000E+01               0
GRID*               4753               04.2414884204E+01-2.034025251E+00+
*       2.0000000000E+01               0
GRID*               4754               03.3217603001E+01-2.931989074E+01+
*       2.0000000000E+01               0
GRID*               4755               03.3965819363E+01-3.391705633E+01+
*       2.0000000000E+01               0
GRID*               4756               03.9687265240E+01-1.849365435E+01+
*       2.0000000000E+01               0
GRID*               4757               03.9708191021E+01-2.331537308E+01+
*       2.0000000000E+01               0
GRID*               4758               03.5802519562E+01-2.585233506E+01+
*       2.0000000000E+01               0
GRID*               4759               04.1043960931E+01-2.886886798E+01+
*       2.0000000000E+01               0
GRID*               4760               04.9270364003E+01-2.892589253E+01+
*       2.0000000000E+01               0
GRID*               4761               05.3463071941E+01-2.655043790E+01+
*       2.0000000000E+01               0
GRID*               4762               05.1073854792E+01-4.690755423E+01+
*       2.0000000000E+01               0
GRID*               4763               05.3012129585E+01-5.208606299E+01+
*       2.0000000000E+01               0
GRID*               4764               05.5774109043E+01-4.777382865E+01+
*       2.0000000000E+01               0
GRID*               4765               03.4265223285E+01-3.899927080E+01+
*       2.0000000000E+01               0
GRID*               4766               03.7437693395E+01-3.648804443E+01+
*       2.0000000000E+01               0
GRID*               4767               03.4739471940E+01-4.247910999E+01+
*       2.0000000000E+01               0
GRID*               4768               03.5516326216E+01-4.537728491E+01+
*       2.0000000000E+01               0
GRID*               4769               03.6745969186E+01-4.951010559E+01+
*       2.0000000000E+01               0
GRID*               4770               03.8966740287E+01-4.570307958E+01+
*       2.0000000000E+01               0
GRID*               4771               04.1241902599E+01-3.383595891E+01+
*       2.0000000000E+01               0
GRID*               4772               04.1541306521E+01-3.891817338E+01+
*       2.0000000000E+01               0
GRID*               4773               04.5147574058E+01-3.129899692E+01+
*       2.0000000000E+01               0
GRID*               4774               04.9468305671E+01-3.389298346E+01+
*       2.0000000000E+01               0
GRID*               4775               04.9590674988E+01-3.943070387E+01+
*       2.0000000000E+01               0
GRID*               4776               05.3713464933E+01-3.705759947E+01+
*       2.0000000000E+01               0
GRID*               4777               04.9409195752E+01-4.347573131E+01+
*       2.0000000000E+01               0
GRID*               4778               04.6647216295E+01-4.778796565E+01+
*       2.0000000000E+01               0
GRID*               4779               04.5164036490E+01-4.031111530E+01+
*       2.0000000000E+01               0
GRID*               4780               04.1359827286E+01-4.296320082E+01+
*       2.0000000000E+01               0
GRID*               4781               04.2589470256E+01-4.709602150E+01+
*       2.0000000000E+01               0
GRID*               4782               04.4254129295E+01-5.052784441E+01+
*       2.0000000000E+01               0
GRID*               4783               06.9461921896E+01-1.656890786E+01+
*       2.0000000000E+01               0
GRID*               4784               07.3563825861E+01-1.857010646E+01+
*       2.0000000000E+01               0
GRID*               4785               07.3548255474E+01-1.381287964E+01+
*       2.0000000000E+01               0
GRID*               4786               06.5468120550E+01-1.910827107E+01+
*       2.0000000000E+01               0
GRID*               4787               06.1552145972E+01-2.167356566E+01+
*       2.0000000000E+01               0
GRID*               4788               06.5561517705E+01-2.389142926E+01+
*       2.0000000000E+01               0
GRID*               4789               05.7490295696E+01-2.401886030E+01+
*       2.0000000000E+01               0
GRID*               4790               05.7618319372E+01-2.898830146E+01+
*       2.0000000000E+01               0
GRID*               4791               06.5942938580E+01-5.054538498E+01+
*       2.0000000000E+01               0
GRID*               4792               06.8879109296E+01-4.650411731E+01+
*       2.0000000000E+01               0
GRID*               4793               06.0930532241E+01-4.932716315E+01+
*       2.0000000000E+01               0
GRID*               4794               05.8992257448E+01-4.414865439E+01+
*       2.0000000000E+01               0
GRID*               4795               06.2724790174E+01-5.417055925E+01+
*       2.0000000000E+01               0
GRID*               4796               05.7861223493E+01-3.386212433E+01+
*       2.0000000000E+01               0
GRID*               4797               06.1888447248E+01-3.133054672E+01+
*       2.0000000000E+01               0
GRID*               4798               05.7983592810E+01-3.939984474E+01+
*       2.0000000000E+01               0
GRID*               4799               06.3140016008E+01-4.095317924E+01+
*       2.0000000000E+01               0
GRID*               4800               06.6854679573E+01-4.276584538E+01+
*       2.0000000000E+01               0
GRID*               4801               06.5846014934E+01-3.801703574E+01+
*       2.0000000000E+01               0
GRID*               4802               07.1585108223E+01-4.356797381E+01+
*       2.0000000000E+01               0
GRID*               4803               07.4041471427E+01-3.921835036E+01+
*       2.0000000000E+01               0
GRID*               4804               06.5650518623E+01-2.887280631E+01+
*       2.0000000000E+01               0
GRID*               4805               06.9566493202E+01-2.630751172E+01+
*       2.0000000000E+01               0
GRID*               4806               06.5893422745E+01-3.374662918E+01+
*       2.0000000000E+01               0
GRID*               4807               06.9608086309E+01-3.555929533E+01+
*       2.0000000000E+01               0
GRID*               4808               07.7327601834E+01-2.077811060E+01+
*       2.0000000000E+01               0
GRID*               4809               07.3241268256E+01-2.353413882E+01+
*       2.0000000000E+01               0
GRID*               4810               08.1115529639E+01-2.278034797E+01+
*       2.0000000000E+01               0
GRID*               4811               07.9708183026E+01-2.757329341E+01+
*       2.0000000000E+01               0
GRID*               4812               08.1438087245E+01-1.781631561E+01+
*       2.0000000000E+01               0
GRID*               4813               07.3330269174E+01-2.851551587E+01+
*       2.0000000000E+01               0
GRID*               4814               07.7763654292E+01-3.217457091E+01+
*       2.0000000000E+01               0
GRID*               4815               07.4088879237E+01-3.494794381E+01+
*       2.0000000000E+01               0
GRID*               4816               05.2209771265E+01-6.457627296E+01+
*       2.0000000000E+01               0
GRID*               4817               05.5984973476E+01-6.130506675E+01+
*       2.0000000000E+01               0
GRID*               4818               04.7298437905E+01-6.277824406E+01+
*       2.0000000000E+01               0
GRID*               4819               04.6514522017E+01-5.856142866E+01+
*       2.0000000000E+01               0
GRID*               4820               04.2824804187E+01-6.147877277E+01+
*       2.0000000000E+01               0
GRID*               4821               04.8520053436E+01-6.749361707E+01+
*       2.0000000000E+01               0
GRID*               4822               04.4396569374E+01-7.031315991E+01+
*       2.0000000000E+01               0
GRID*               4823               05.3608016414E+00-8.321767332E+01+
*       2.0000000000E+01               0
GRID*               4824               03.8424798603E+01-5.968653500E+01+
*       2.0000000000E+01               0
GRID*               4825               03.9208714492E+01-6.390335040E+01+
*       2.0000000000E+01               0
GRID*               4826               03.4647065655E+01-5.852121203E+01+
*       2.0000000000E+01               0
GRID*               4827               03.8263155351E+01-5.609663440E+01+
*       2.0000000000E+01               0
GRID*               4828               02.5534738203E+01-5.485514655E+01+
*       2.0000000000E+01               0
GRID*               4829               02.3891858269E+01-5.800489355E+01+
*       2.0000000000E+01               0
GRID*               4830               03.1148372268E+01-5.638338608E+01+
*       2.0000000000E+01               0
GRID*               4831               03.1310015521E+01-5.997328669E+01+
*       2.0000000000E+01               0
GRID*               4832               03.1770251429E+01-5.417884164E+01+
*       2.0000000000E+01               0
GRID*               4833               02.8433201296E+01-5.563091630E+01+
*       2.0000000000E+01               0
GRID*               4834               04.0254940679E+01-7.289291604E+01+
*       2.0000000000E+01               0
GRID*               4835               03.5836929270E+01-7.522403589E+01+
*       2.0000000000E+01               0
GRID*               4836               03.9467091381E+01-6.827534429E+01+
*       2.0000000000E+01               0
GRID*               4837               03.5067085797E+01-6.648310652E+01+
*       2.0000000000E+01               0
GRID*               4838               09.1187174667E+00-8.342393479E+01+
*       2.0000000000E+01               0
GRID*               4839               01.4063169927E+01-8.271305939E+01+
*       2.0000000000E+01               0
GRID*               4840               06.9922892074E+00-7.946252935E+01+
*       2.0000000000E+01               0
GRID*               4841               09.7775448681E+00-7.594145273E+01+
*       2.0000000000E+01               0
GRID*               4842               03.0014713510E+01-6.426896089E+01+
*       2.0000000000E+01               0
GRID*               4843               03.0273090399E+01-6.864095478E+01+
*       2.0000000000E+01               0
GRID*               4844               02.6516020123E+01-6.213113495E+01+
*       2.0000000000E+01               0
GRID*               4845               02.2596556258E+01-6.230056776E+01+
*       2.0000000000E+01               0
GRID*               4846               02.0036190672E+01-6.587854242E+01+
*       2.0000000000E+01               0
GRID*               4847               01.3012982023E+01-7.322809932E+01+
*       2.0000000000E+01               0
GRID*               4848               01.3985642187E+01-7.695543741E+01+
*       2.0000000000E+01               0
GRID*               4849               01.6036371286E+01-6.978617985E+01+
*       2.0000000000E+01               0
GRID*               4850               02.1220898727E+01-7.033444658E+01+
*       2.0000000000E+01               0
GRID*               4851               03.1449270219E+01-7.800997855E+01+
*       2.0000000000E+01               0
GRID*               4852               02.6794328140E+01-7.982228709E+01+
*       2.0000000000E+01               0
GRID*               4853               03.0937803635E+01-7.364104308E+01+
*       2.0000000000E+01               0
GRID*               4854               02.5885431347E+01-7.142689745E+01+
*       2.0000000000E+01               0
GRID*               4855               02.1885611962E+01-7.533453487E+01+
*       2.0000000000E+01               0
GRID*               4856               02.1963139702E+01-8.109215686E+01+
*       2.0000000000E+01               0
GRID*               4857               01.7298607081E+01-7.999970599E+01+
*       2.0000000000E+01               0
GRID*               4858               03.3890488758E+01-5.205781117E+01+
*       2.0000000000E+01               0
GRID*               4859               03.7340902829E+01-5.238360584E+01+
*       2.0000000000E+01               0
GRID*               4860               04.1118635778E+01-5.354892882E+01+
*       2.0000000000E+01               0
GRID*               4861               04.5176381817E+01-5.424087297E+01+
*       2.0000000000E+01               0
GRID*               4862               05.9347087527E+01-5.785078548E+01+
*       2.0000000000E+01               0
GRID*               4863               05.4350269785E+01-5.640661868E+01+
*       2.0000000000E+01               0
GRID*               4864               04.9650015534E+01-5.554034425E+01+
*       2.0000000000E+01               0
GRID*               4865               08.2464538827E+01-8.011787355E+00+
*       2.0000000000E+01               0
GRID*               4866               08.2749716356E+01-3.024640940E+00+
*       2.0000000000E+01               0
GRID*               4867               08.2289902192E+01-1.289418554E+01+
*       2.0000000000E+01               0
GRID*               4868               07.7824796075E+01-1.093168006E+01+
*       2.0000000000E+01               0
GRID*               4869               07.3722892110E+01-8.930481460E+00+
*       2.0000000000E+01               0
GRID*               4870               08.1963886618E+011.1526119150E+01+
*       2.0000000000E+01               0
GRID*               4871               08.1112071671E+011.6448249226E+01+
*       2.0000000000E+01               0
GRID*               4872               06.1015232381E+01-5.401134076E+00+
*       2.0000000000E+01               0
GRID*               4873               07.7455029977E+018.3814339282E+00+
*       2.0000000000E+01               0
GRID*               4874               07.3200651376E+011.0156109992E+01+
*       2.0000000000E+01               0
GRID*               4875               07.3657553061E+015.4595984494E+00+
*       2.0000000000E+01               0
GRID*               4876               08.2420788303E+016.8296076077E+00+
*       2.0000000000E+01               0
GRID*               4877               08.2705965831E+011.8424611929E+00+
*       2.0000000000E+01               0
GRID*               4878               06.9055960715E+01-6.965071050E+00+
*       2.0000000000E+01               0
GRID*               4879               06.5076378472E+01-5.312314417E+00+
*       2.0000000000E+01               0
GRID*               4880               07.3332501317E+01-4.083871471E+00+
*       2.0000000000E+01               0
GRID*               4881               07.7955682186E+01-1.182179748E+00+
*       2.0000000000E+01               0
GRID*               4882               07.3288750792E+017.8323066226E-01+
*       2.0000000000E+01               0
GRID*               4883               06.4604423831E+01-2.207280720E+00+
*       2.0000000000E+01               0
GRID*               4884               06.6275889672E+015.3864411288E-01+
*       2.0000000000E+01               0
GRID*               4885               06.2214743581E+014.4982445446E-01+
*       2.0000000000E+01               0
GRID*               4886               06.9034372191E+012.5579067260E+00+
*       2.0000000000E+01               0
GRID*               4887               06.6644691941E+015.2150119000E+00+
*       2.0000000000E+01               0
GRID*               4888               04.2958310542E+016.5255335385E+00+
*       2.0000000000E+01               0
GRID*               4889               04.1988712518E+011.0739601110E+01+
*       2.0000000000E+01               0
GRID*               4890               04.7825382812E+015.3223084336E+00+
*       2.0000000000E+01               0
GRID*               4891               04.5609690615E+014.1152585137E+00+
*       2.0000000000E+01               0
GRID*               4892               05.0205169235E+017.1485197356E+00+
*       2.0000000000E+01               0
GRID*               4893               04.2373957793E+012.2922755631E+00+
*       2.0000000000E+01               0
GRID*               4894               06.1823306073E+013.4239136626E+00+
*       2.0000000000E+01               0
GRID*               4895               07.5221926507E+013.4972949339E+01+
*       2.0000000000E+01               0
GRID*               4896               07.7166455241E+013.0371671841E+01+
*       2.0000000000E+01               0
GRID*               4897               06.0512145095E+013.7519152817E+01+
*       2.0000000000E+01               0
GRID*               4898               06.5238555494E+013.6681011263E+01+
*       2.0000000000E+01               0
GRID*               4899               05.6011837955E+013.8265777628E+01+
*       2.0000000000E+01               0
GRID*               4900               05.7848066328E+013.3866933250E+01+
*       2.0000000000E+01               0
GRID*               4901               07.0025163090E+013.5790306957E+01+
*       2.0000000000E+01               0
GRID*               4902               06.7134981063E+013.2229604134E+01+
*       2.0000000000E+01               0
GRID*               4903               05.1507624115E+013.8931238901E+01+
*       2.0000000000E+01               0
GRID*               4904               03.1934702553E+013.9575872255E+01+
*       2.0000000000E+01               0
GRID*               4905               03.1166330988E+013.7068146515E+01+
*       2.0000000000E+01               0
GRID*               4906               03.4054939712E+014.1696902677E+01+
*       2.0000000000E+01               0
GRID*               4907               03.7904077122E+014.0916763376E+01+
*       2.0000000000E+01               0
GRID*               4908               04.7023081169E+013.9541213298E+01+
*       2.0000000000E+01               0
GRID*               4909               04.8863216242E+013.5223532458E+01+
*       2.0000000000E+01               0
GRID*               4910               04.2686251616E+014.0175855918E+01+
*       2.0000000000E+01               0
GRID*               4911               03.9596498802E+013.6574414314E+01+
*       2.0000000000E+01               0
GRID*               4912               08.0084434848E+012.1077446726E+01+
*       2.0000000000E+01               0
GRID*               4913               07.5970491469E+011.7707142970E+01+
*       2.0000000000E+01               0
GRID*               4914               07.8677088234E+012.5870392162E+01+
*       2.0000000000E+01               0
GRID*               4915               07.3432221653E+012.6837620149E+01+
*       2.0000000000E+01               0
GRID*               4916               06.8693062549E+012.7928485651E+01+
*       2.0000000000E+01               0
GRID*               4917               07.0203695542E+012.3427205972E+01+
*       2.0000000000E+01               0
GRID*               4918               06.3906454953E+012.8819189957E+01+
*       2.0000000000E+01               0
GRID*               4919               07.2409282626E+011.4463621623E+01+
*       2.0000000000E+01               0
GRID*               4920               06.8611805710E+011.1541786144E+01+
*       2.0000000000E+01               0
GRID*               4921               07.1381645804E+011.9092819123E+01+
*       2.0000000000E+01               0
GRID*               4922               06.6642486699E+012.0183684625E+01+
*       2.0000000000E+01               0
GRID*               4923               04.1090812227E+011.6028820542E+01+
*       2.0000000000E+01               0
GRID*               4924               03.9237508690E+011.9936935967E+01+
*       2.0000000000E+01               0
GRID*               4925               04.5296143073E+011.3637735921E+01+
*       2.0000000000E+01               0
GRID*               4926               04.9598108642E+011.1018374828E+01+
*       2.0000000000E+01               0
GRID*               4927               05.3609234513E+019.8183780746E+00+
*       2.0000000000E+01               0
GRID*               4928               05.2705735121E+011.7312624115E+01+
*       2.0000000000E+01               0
GRID*               4929               04.8403769552E+011.9931985208E+01+
*       2.0000000000E+01               0
GRID*               4930               04.8700208351E+011.6307594260E+01+
*       2.0000000000E+01               0
GRID*               4931               06.4440194267E+011.2807378336E+01+
*       2.0000000000E+01               0
GRID*               4932               06.5231563017E+018.4998667045E+00+
*       2.0000000000E+01               0
GRID*               4933               06.3578638669E+011.7170481434E+01+
*       2.0000000000E+01               0
GRID*               4934               06.0198395975E+011.4128561995E+01+
*       2.0000000000E+01               0
GRID*               4935               05.6169507148E+011.6089949130E+01+
*       2.0000000000E+01               0
GRID*               4936               05.5873068349E+011.9714340078E+01+
*       2.0000000000E+01               0
GRID*               4937               05.7031062747E+011.1726846031E+01+
*       2.0000000000E+01               0
GRID*               4938               06.2473080498E+016.4806040915E+00+
*       2.0000000000E+01               0
GRID*               4939               06.0410177149E+016.7087684671E+00+
*       2.0000000000E+01               0
GRID*               4940               05.7638123340E+017.8569909390E+00+
*       2.0000000000E+01               0
GRID*               4941               06.1171798476E+012.5513288619E+01+
*       2.0000000000E+01               0
GRID*               4942               05.9613716991E+012.9814407102E+01+
*       2.0000000000E+01               0
GRID*               4943               05.8107950445E+012.2500085429E+01+
*       2.0000000000E+01               0
GRID*               4944               05.4644178418E+012.3722760413E+01+
*       2.0000000000E+01               0
GRID*               4945               06.2400688407E+012.1504868284E+01+
*       2.0000000000E+01               0
GRID*               4946               05.0438470147E+012.4217851794E+01+
*       2.0000000000E+01               0
GRID*               4947               04.6432943377E+012.3212821939E+01+
*       2.0000000000E+01               0
GRID*               4948               05.2673352243E+012.7003597144E+01+
*       2.0000000000E+01               0
GRID*               4949               05.5113409851E+013.0561031912E+01+
*       2.0000000000E+01               0
GRID*               4950               05.0907701580E+013.1056123293E+01+
*       2.0000000000E+01               0
GRID*               4951               04.6423158634E+013.1666097690E+01+
*       2.0000000000E+01               0
GRID*               4952               04.1775416515E+013.1952854693E+01+
*       2.0000000000E+01               0
GRID*               4953               03.6993242022E+013.2693762152E+01+
*       2.0000000000E+01               0
GRID*               4954               04.3819901854E+012.7785445528E+01+
*       2.0000000000E+01               0
GRID*               4955               04.1785201259E+012.3499578942E+01+
*       2.0000000000E+01               0
GRID*               4956               03.6624467166E+012.4509559556E+01+
*       2.0000000000E+01               0
GRID*               4957               03.3974254639E+012.7927833653E+01+
*       2.0000000000E+01               0
GRID*               4958               03.1795336926E+013.2549393274E+01+
*       2.0000000000E+01               0
GRID*               4959               02.8147343605E+013.2302218015E+01+
*       2.0000000000E+01               0
GRID*               6019               01.9592995012E+017.6170875494E+01+
*       0.0000000000E+00               0
GRID*               6020               02.1488796183E+016.7071776929E+01+
*       0.0000000000E+00               0
GRID*               6021               02.3712351335E+015.9346818256E+01+
*       0.0000000000E+00               0
GRID*               6022               01.6990576116E+014.2672509934E+01+
*       0.0000000000E+00               0
GRID*               6023               02.8590340039E+01-3.607785472E+01+
*       0.0000000000E+00               0
GRID*               6024               0-4.451447732E+011.8079160284E+00+
*       0.0000000000E+00               0
GRID*               6025               04.4636115170E+014.5349019144E+00+
*       0.0000000000E+00               0
GRID*               6026               0-2.419310861E+013.7836198916E+01+
*       0.0000000000E+00               0
GRID*               6027               0-1.826603717E+01-4.089267855E+01+
*       0.0000000000E+00               0
GRID*               6028               0-3.473803005E+015.5094598066E+01+
*       0.0000000000E+00               0
GRID*               6029               0-4.032303389E+015.9058953957E+01+
*       0.0000000000E+00               0
GRID*               6030               0-4.802382586E+016.2851696301E+01+
*       0.0000000000E+00               0
GRID*               6031               0-1.648338116E+014.2541298589E+01+
*       0.0000000000E+00               0
GRID*               6032               07.7440533818E+004.5032465084E+01+
*       0.0000000000E+00               0
GRID*               6033               0-1.256992317E+004.6513072261E+01+
*       0.0000000000E+00               0
GRID*               6034               0-1.002290407E+014.8109734446E+01+
*       0.0000000000E+00               0
GRID*               6035               0-1.747362025E+015.0106256411E+01+
*       0.0000000000E+00               0
GRID*               6036               0-3.741812742E+005.4983404737E+01+
*       0.0000000000E+00               0
GRID*               6037               03.3891356327E+006.3377021145E+01+
*       0.0000000000E+00               0
GRID*               6038               01.2498703343E+016.9535662284E+01+
*       0.0000000000E+00               0
GRID*               6039               05.8671585007E+005.3322119162E+01+
*       0.0000000000E+00               0
GRID*               6040               01.4543806477E+015.0671974997E+01+
*       0.0000000000E+00               0
GRID*               6041               02.0249365654E+015.4369304406E+01+
*       0.0000000000E+00               0
GRID*               6042               01.4554975030E+015.9688582083E+01+
*       0.0000000000E+00               0
GRID*               6043               0-1.245117281E+015.6156119749E+01+
*       0.0000000000E+00               0
GRID*               6044               0-7.188725239E+006.3120150619E+01+
*       0.0000000000E+00               0
GRID*               6045               0-2.806753712E+007.1136404119E+01+
*       0.0000000000E+00               0
GRID*               6046               01.6954964718E+007.9126601241E+01+
*       0.0000000000E+00               0
GRID*               6047               01.0581206575E+017.8313057317E+01+
*       0.0000000000E+00               0
GRID*               6048               05.0786756170E+007.2396039151E+01+
*       0.0000000000E+00               0
GRID*               6049               0-4.033721438E+016.7633482808E+01+
*       0.0000000000E+00               0
GRID*               6050               0-7.475698811E+007.8664496806E+01+
*       0.0000000000E+00               0
GRID*               6051               0-3.187836161E+017.2366907785E+01+
*       0.0000000000E+00               0
GRID*               6052               0-3.124847779E+016.2035863790E+01+
*       0.0000000000E+00               0
GRID*               6053               0-1.179602562E+017.0348607415E+01+
*       0.0000000000E+00               0
GRID*               6054               0-1.678085644E+017.7657921969E+01+
*       0.0000000000E+00               0
GRID*               6055               0-2.181810997E+016.8622689528E+01+
*       0.0000000000E+00               0
GRID*               6056               0-2.489830418E+017.7028797483E+01+
*       0.0000000000E+00               0
GRID*               6057               0-1.479774712E+016.3165823414E+01+
*       0.0000000000E+00               0
GRID*               6058               0-2.118096458E+015.7852541230E+01+
*       0.0000000000E+00               0
GRID*               6059               0-6.074543456E+014.9156085626E+01+
*       0.0000000000E+00               0
GRID*               6060               0-4.956138223E+014.7393053668E+01+
*       0.0000000000E+00               0
GRID*               6061               0-3.920681241E+014.3096436518E+01+
*       0.0000000000E+00               0
GRID*               6062               0-7.658972437E+01-1.747643484E+01+
*       0.0000000000E+00               0
GRID*               6063               0-7.011969720E+01-1.096212593E+01+
*       0.0000000000E+00               0
GRID*               6064               0-6.559200860E+01-5.751896329E+00+
*       0.0000000000E+00               0
GRID*               6065               0-4.555498551E+01-7.031673308E+00+
*       0.0000000000E+00               0
GRID*               6066               0-3.275874185E+01-7.216723096E+01+
*       0.0000000000E+00               0
GRID*               6067               0-3.234212201E+01-6.427567533E+01+
*       0.0000000000E+00               0
GRID*               6068               0-3.094286587E+01-5.789543930E+01+
*       0.0000000000E+00               0
GRID*               6069               0-1.574084193E+01-7.644995635E+01+
*       0.0000000000E+00               0
GRID*               6070               0-1.949063553E+01-6.619893422E+01+
*       0.0000000000E+00               0
GRID*               6071               0-2.056119358E+01-5.639405866E+01+
*       0.0000000000E+00               0
GRID*               6072               01.7073351381E+01-5.045607719E+01+
*       0.0000000000E+00               0
GRID*               6073               08.9093335861E+00-4.670388797E+01+
*       0.0000000000E+00               0
GRID*               6074               0-1.315332730E+00-4.574386418E+01+
*       0.0000000000E+00               0
GRID*               6075               0-1.041575492E+01-4.383931305E+01+
*       0.0000000000E+00               0
GRID*               6076               02.1037884688E+01-3.978871631E+01+
*       0.0000000000E+00               0
GRID*               6077               01.6452387080E+01-4.408467932E+01+
*       0.0000000000E+00               0
GRID*               6078               05.0974332247E+01-5.950807539E+01+
*       0.0000000000E+00               0
GRID*               6079               04.1791737976E+01-5.651245509E+01+
*       0.0000000000E+00               0
GRID*               6080               03.4178570031E+01-5.438245375E+01+
*       0.0000000000E+00               0
GRID*               6081               07.7168431924E+011.2987394321E+01+
*       0.0000000000E+00               0
GRID*               6082               06.9838362693E+016.7243440081E+00+
*       0.0000000000E+00               0
GRID*               6083               06.4167962866E+011.4750544441E+00+
*       0.0000000000E+00               0
GRID*               6084               07.4943206860E+012.2429418397E+01+
*       0.0000000000E+00               0
GRID*               6085               06.7692417795E+011.5595536388E+01+
*       0.0000000000E+00               0
GRID*               6086               06.0760412505E+018.8737050463E+00+
*       0.0000000000E+00               0
GRID*               6087               02.3958717673E+013.8115988324E+01+
*       0.0000000000E+00               0
GRID*               6088               04.3413982352E+011.2768499970E+01+
*       0.0000000000E+00               0
GRID*               6089               04.0585058196E+012.1648333855E+01+
*       0.0000000000E+00               0
GRID*               6090               03.6316669001E+013.1159332384E+01+
*       0.0000000000E+00               0
GRID*               6091               03.5380035354E+014.0376736433E+01+
*       0.0000000000E+00               0
GRID*               6092               02.8596973956E+017.3260085694E+01+
*       0.0000000000E+00               0
GRID*               6093               02.9714662218E+016.4259642855E+01+
*       0.0000000000E+00               0
GRID*               6094               02.9587413570E+015.7466294729E+01+
*       0.0000000000E+00               0
GRID*               6095               04.6511759567E+012.9122656203E+01+
*       0.0000000000E+00               0
GRID*               6096               05.5848954668E+012.7080599287E+01+
*       0.0000000000E+00               0
GRID*               6097               06.5241902695E+012.4859585850E+01+
*       0.0000000000E+00               0
GRID*               6098               04.9316238748E+011.9767073436E+01+
*       0.0000000000E+00               0
GRID*               6099               05.8367051982E+011.7761474477E+01+
*       0.0000000000E+00               0
GRID*               6100               05.1301708156E+011.0364235208E+01+
*       0.0000000000E+00               0
GRID*               6101               03.7426291006E+016.9347408209E+01+
*       0.0000000000E+00               0
GRID*               6102               03.7825110335E+015.8837684770E+01+
*       0.0000000000E+00               0
GRID*               6103               04.0306621377E+014.8167127807E+01+
*       0.0000000000E+00               0
GRID*               6104               04.3768240570E+013.8559958984E+01+
*       0.0000000000E+00               0
GRID*               6105               07.2101045449E+013.1880724507E+01+
*       0.0000000000E+00               0
GRID*               6106               05.3233100486E+013.6554545210E+01+
*       0.0000000000E+00               0
GRID*               6107               06.2587430907E+013.4368102003E+01+
*       0.0000000000E+00               0
GRID*               6108               06.9041720400E+014.1608835693E+01+
*       0.0000000000E+00               0
GRID*               6109               05.0698460808E+014.5962307519E+01+
*       0.0000000000E+00               0
GRID*               6110               06.0040430572E+014.4238711961E+01+
*       0.0000000000E+00               0
GRID*               6111               04.6970561853E+016.5101456611E+01+
*       0.0000000000E+00               0
GRID*               6112               04.8905447418E+015.5484801094E+01+
*       0.0000000000E+00               0
GRID*               6113               05.7654801004E+015.2727082035E+01+
*       0.0000000000E+00               0
GRID*               6114               03.0053501741E+013.6381863176E+01+
*       0.0000000000E+00               0
GRID*               6115               04.5268923481E+01-7.762304193E+00+
*       0.0000000000E+00               0
GRID*               6116               04.5865347405E+01-1.475087378E+00+
*       0.0000000000E+00               0
GRID*               6117               03.5326858925E+01-2.931761531E+01+
*       0.0000000000E+00               0
GRID*               6118               04.0964404222E+01-2.248502256E+01+
*       0.0000000000E+00               0
GRID*               6119               04.6694841034E+01-1.606449378E+01+
*       0.0000000000E+00               0
GRID*               6120               05.2077482645E+01-1.064142882E+01+
*       0.0000000000E+00               0
GRID*               6121               04.3488535362E+01-3.158543462E+01+
*       0.0000000000E+00               0
GRID*               6122               04.5878377923E+01-4.069023576E+01+
*       0.0000000000E+00               0
GRID*               6123               04.8391418068E+01-4.998632944E+01+
*       0.0000000000E+00               0
GRID*               6124               03.7349716021E+01-3.805521445E+01+
*       0.0000000000E+00               0
GRID*               6125               03.9042563087E+01-4.741831594E+01+
*       0.0000000000E+00               0
GRID*               6126               04.9312520633E+01-2.493329304E+01+
*       0.0000000000E+00               0
GRID*               6127               05.2021943265E+01-3.391267051E+01+
*       0.0000000000E+00               0
GRID*               6128               05.4824081351E+01-4.310685216E+01+
*       0.0000000000E+00               0
GRID*               6129               05.7814017904E+01-5.266145160E+01+
*       0.0000000000E+00               0
GRID*               6130               05.4844588003E+01-1.855963475E+01+
*       0.0000000000E+00               0
GRID*               6131               05.7787300187E+01-2.725288739E+01+
*       0.0000000000E+00               0
GRID*               6132               06.0748572849E+01-3.618632583E+01+
*       0.0000000000E+00               0
GRID*               6133               06.4027488121E+01-4.541905307E+01+
*       0.0000000000E+00               0
GRID*               6134               07.8451674559E+013.5656976791E+00+
*       0.0000000000E+00               0
GRID*               6135               07.0702317732E+01-1.990563425E+00+
*       0.0000000000E+00               0
GRID*               6136               06.3470028494E+01-5.577669918E+00+
*       0.0000000000E+00               0
GRID*               6137               05.9772726879E+01-1.222200810E+01+
*       0.0000000000E+00               0
GRID*               6138               06.9467358763E+01-3.810821226E+01+
*       0.0000000000E+00               0
GRID*               6139               06.3410569509E+01-2.058203918E+01+
*       0.0000000000E+00               0
GRID*               6140               06.6257650280E+01-2.956930603E+01+
*       0.0000000000E+00               0
GRID*               6141               07.8723496343E+01-6.204111195E+00+
*       0.0000000000E+00               0
GRID*               6142               06.9642074898E+01-1.237297972E+01+
*       0.0000000000E+00               0
GRID*               6143               07.3715154342E+01-3.185454752E+01+
*       0.0000000000E+00               0
GRID*               6144               07.2339824970E+01-2.340113392E+01+
*       0.0000000000E+00               0
GRID*               6145               07.9060872128E+01-1.661860747E+01+
*       0.0000000000E+00               0
GRID*               6146               02.4125730243E+00-5.417965052E+01+
*       0.0000000000E+00               0
GRID*               6147               0-3.508045369E+00-6.115903415E+01+
*       0.0000000000E+00               0
GRID*               6148               0-9.587302314E+00-6.848741422E+01+
*       0.0000000000E+00               0
GRID*               6149               0-1.268193773E+01-5.895273360E+01+
*       0.0000000000E+00               0
GRID*               6150               0-1.617610310E+01-4.938130185E+01+
*       0.0000000000E+00               0
GRID*               6151               0-6.964529286E+00-5.218355511E+01+
*       0.0000000000E+00               0
GRID*               6152               0-6.225354950E+00-7.802370470E+01+
*       0.0000000000E+00               0
GRID*               6153               01.1460740966E+01-5.618812329E+01+
*       0.0000000000E+00               0
GRID*               6154               05.5504656940E+00-6.306302955E+01+
*       0.0000000000E+00               0
GRID*               6155               0-3.622392739E-01-7.024790504E+01+
*       0.0000000000E+00               0
GRID*               6156               04.3514451714E+01-6.545209283E+01+
*       0.0000000000E+00               0
GRID*               6157               03.4633058680E+01-6.175783588E+01+
*       0.0000000000E+00               0
GRID*               6158               02.7665559800E+01-5.757363752E+01+
*       0.0000000000E+00               0
GRID*               6159               01.9846968382E+01-5.775685676E+01+
*       0.0000000000E+00               0
GRID*               6160               02.9369067363E+00-7.900085899E+01+
*       0.0000000000E+00               0
GRID*               6161               01.4527957732E+01-6.480770706E+01+
*       0.0000000000E+00               0
GRID*               6162               08.3878189322E+00-7.178111799E+01+
*       0.0000000000E+00               0
GRID*               6163               03.5235725745E+01-7.069815809E+01+
*       0.0000000000E+00               0
GRID*               6164               02.5059607781E+01-6.613196669E+01+
*       0.0000000000E+00               0
GRID*               6165               01.0573005126E+01-7.948738445E+01+
*       0.0000000000E+00               0
GRID*               6166               01.7034317944E+01-7.396848018E+01+
*       0.0000000000E+00               0
GRID*               6167               02.6470834860E+01-7.630666890E+01+
*       0.0000000000E+00               0
GRID*               6168               0-2.626916235E+01-6.095459830E+01+
*       0.0000000000E+00               0
GRID*               6169               0-2.489517114E+01-7.477498541E+01+
*       0.0000000000E+00               0
GRID*               6170               0-2.724485158E+01-6.762506167E+01+
*       0.0000000000E+00               0
GRID*               6171               0-2.918142997E+01-3.541342281E+01+
*       0.0000000000E+00               0
GRID*               6172               0-2.416586010E+01-3.898832823E+01+
*       0.0000000000E+00               0
GRID*               6173               0-4.289365983E+01-1.633800812E+01+
*       0.0000000000E+00               0
GRID*               6174               0-3.961507904E+01-2.464990529E+01+
*       0.0000000000E+00               0
GRID*               6175               0-3.679037503E+01-3.274123848E+01+
*       0.0000000000E+00               0
GRID*               6176               0-3.471750075E+01-3.994717091E+01+
*       0.0000000000E+00               0
GRID*               6177               0-4.241307574E+01-3.878444642E+01+
*       0.0000000000E+00               0
GRID*               6178               0-5.123516441E+01-3.769787843E+01+
*       0.0000000000E+00               0
GRID*               6179               0-6.045808234E+01-3.649766548E+01+
*       0.0000000000E+00               0
GRID*               6180               0-7.012307191E+01-3.530437366E+01+
*       0.0000000000E+00               0
GRID*               6181               0-5.458023111E+01-2.950137538E+01+
*       0.0000000000E+00               0
GRID*               6182               0-4.866321538E+01-2.276383028E+01+
*       0.0000000000E+00               0
GRID*               6183               0-4.553972005E+01-3.103279170E+01+
*       0.0000000000E+00               0
GRID*               6184               0-5.165309809E+01-1.409786794E+01+
*       0.0000000000E+00               0
GRID*               6185               0-6.395228124E+01-2.801305579E+01+
*       0.0000000000E+00               0
GRID*               6186               0-5.780721551E+01-2.088333403E+01+
*       0.0000000000E+00               0
GRID*               6187               0-7.370954120E+01-2.645838835E+01+
*       0.0000000000E+00               0
GRID*               6188               0-6.718680218E+01-1.921751288E+01+
*       0.0000000000E+00               0
GRID*               6189               0-6.088553665E+01-1.149131400E+01+
*       0.0000000000E+00               0
GRID*               6190               0-3.985128925E+01-6.791783958E+01+
*       0.0000000000E+00               0
GRID*               6191               0-4.673570498E+01-6.223142182E+01+
*       0.0000000000E+00               0
GRID*               6192               0-3.749467776E+01-5.949640034E+01+
*       0.0000000000E+00               0
GRID*               6193               0-6.614905144E+01-4.359560108E+01+
*       0.0000000000E+00               0
GRID*               6194               0-5.702751850E+01-4.469602206E+01+
*       0.0000000000E+00               0
GRID*               6195               0-6.255924085E+01-5.059204567E+01+
*       0.0000000000E+00               0
GRID*               6196               0-3.886283563E+01-4.564985469E+01+
*       0.0000000000E+00               0
GRID*               6197               0-4.766704832E+01-4.566490224E+01+
*       0.0000000000E+00               0
GRID*               6198               0-5.405379202E+01-5.450204350E+01+
*       0.0000000000E+00               0
GRID*               6199               0-4.281981418E+01-5.312403867E+01+
*       0.0000000000E+00               0
GRID*               6200               0-5.127006670E+011.1897719466E+01+
*       0.0000000000E+00               0
GRID*               6201               0-4.482910459E+011.8455079280E+01+
*       0.0000000000E+00               0
GRID*               6202               0-3.806134738E+012.5252032233E+01+
*       0.0000000000E+00               0
GRID*               6203               0-3.147555193E+013.1594091820E+01+
*       0.0000000000E+00               0
GRID*               6204               0-4.429939790E+019.8186414497E+00+
*       0.0000000000E+00               0
GRID*               6205               0-7.845959173E+01-8.508471699E+00+
*       0.0000000000E+00               0
GRID*               6206               0-7.160113279E+01-3.327991833E+00+
*       0.0000000000E+00               0
GRID*               6207               0-6.537339963E+011.2750067211E-01+
*       0.0000000000E+00               0
GRID*               6208               0-5.319482542E+012.0413996743E+01+
*       0.0000000000E+00               0
GRID*               6209               0-5.532824093E+012.9470400020E+01+
*       0.0000000000E+00               0
GRID*               6210               0-5.761293824E+013.9168103222E+01+
*       0.0000000000E+00               0
GRID*               6211               0-4.786440113E+013.6628995046E+01+
*       0.0000000000E+00               0
GRID*               6212               0-3.911506871E+013.3726713328E+01+
*       0.0000000000E+00               0
GRID*               6213               0-4.638406113E+012.7311883690E+01+
*       0.0000000000E+00               0
GRID*               6214               0-3.202636548E+013.8619015937E+01+
*       0.0000000000E+00               0
GRID*               6215               0-7.904926684E+013.4927208971E-01+
*       0.0000000000E+00               0
GRID*               6216               0-7.120139283E+014.4524885847E+00+
*       0.0000000000E+00               0
GRID*               6217               0-6.353880657E+016.6678084530E+00+
*       0.0000000000E+00               0
GRID*               6218               0-5.913576613E+011.3453183164E+01+
*       0.0000000000E+00               0
GRID*               6219               0-7.852771779E+019.2774837768E+00+
*       0.0000000000E+00               0
GRID*               6220               0-6.921367610E+011.3845277120E+01+
*       0.0000000000E+00               0
GRID*               6221               0-6.220920955E+012.2090504907E+01+
*       0.0000000000E+00               0
GRID*               6222               0-6.730124551E+014.1209185855E+01+
*       0.0000000000E+00               0
GRID*               6223               0-6.468494508E+013.1476443682E+01+
*       0.0000000000E+00               0
GRID*               6224               0-7.798188001E+011.7240969020E+01+
*       0.0000000000E+00               0
GRID*               6225               0-7.186611099E+012.3772435840E+01+
*       0.0000000000E+00               0
GRID*               6226               0-7.379382409E+013.3147235192E+01+
*       0.0000000000E+00               0
GRID*               6227               0-4.042894215E+015.1792860847E+01+
*       0.0000000000E+00               0
GRID*               6228               0-5.442872229E+015.6768556529E+01+
*       0.0000000000E+00               0
GRID*               6229               0-4.644828889E+015.5679819839E+01+
*       0.0000000000E+00               0
GRID*               6230               0-1.666038385E+013.8938469733E+01+
*       0.0000000000E+00               0
GRID*               6231               0-1.235902222E+014.0403715902E+01+
*       0.0000000000E+00               0
GRID*               6232               0-2.307491543E+014.1585747773E+01+
*       0.0000000000E+00               0
GRID*               6233               0-2.545470191E+013.9759536635E+01+
*       0.0000000000E+00               0
GRID*               6234               0-1.922005171E+014.3938297610E+01+
*       0.0000000000E+00               0
GRID*               6235               0-2.033824489E+014.0188748752E+01+
*       0.0000000000E+00               0
GRID*               6236               0-2.051524757E+013.6585919896E+01+
*       0.0000000000E+00               0
GRID*               6237               0-2.436205460E+013.4168782000E+01+
*       0.0000000000E+00               0
GRID*               6238               0-2.499402529E+005.0748238499E+01+
*       0.0000000000E+00               0
GRID*               6239               0-5.639948195E+004.7311403354E+01+
*       0.0000000000E+00               0
GRID*               6240               0-6.882358407E+005.1546569592E+01+
*       0.0000000000E+00               0
GRID*               6241               02.3050830919E+004.9917595712E+01+
*       0.0000000000E+00               0
GRID*               6242               06.8056059412E+004.9177292123E+01+
*       0.0000000000E+00               0
GRID*               6243               03.2435305325E+004.5772768673E+01+
*       0.0000000000E+00               0
GRID*               6244               01.0626728793E+005.4152761950E+01+
*       0.0000000000E+00               0
GRID*               6245               01.5767191297E+014.6672242465E+01+
*       0.0000000000E+00               0
GRID*               6246               01.8124125635E+014.9928142784E+01+
*       0.0000000000E+00               0
GRID*               6247               01.9347510455E+014.5928410253E+01+
*       0.0000000000E+00               0
GRID*               6248               01.1143929929E+014.7852220040E+01+
*       0.0000000000E+00               0
GRID*               6249               01.0205482489E+015.1997047079E+01+
*       0.0000000000E+00               0
GRID*               6250               01.2367314749E+014.3852487509E+01+
*       0.0000000000E+00               0
GRID*               6251               02.3097142509E+015.3897837848E+01+
*       0.0000000000E+00               0
GRID*               6252               02.1980858495E+015.6858061331E+01+
*       0.0000000000E+00               0
GRID*               6253               02.4828635350E+015.6386594773E+01+
*       0.0000000000E+00               0
GRID*               6254               02.0976905224E+015.1776807489E+01+
*       0.0000000000E+00               0
GRID*               6255               01.7396586065E+015.2520639701E+01+
*       0.0000000000E+00               0
GRID*               6256               01.4549390753E+015.5180278540E+01+
*       0.0000000000E+00               0
GRID*               6257               01.0211066765E+015.6505350622E+01+
*       0.0000000000E+00               0
GRID*               6258               01.9133663183E+015.9517700170E+01+
*       0.0000000000E+00               0
GRID*               6259               01.8021885607E+016.3380179506E+01+
*       0.0000000000E+00               0
GRID*               6260               02.2600573759E+016.3209297592E+01+
*       0.0000000000E+00               0
GRID*               6261               01.7402170342E+015.7028943244E+01+
*       0.0000000000E+00               0
GRID*               6262               01.6993749763E+016.8303719606E+01+
*       0.0000000000E+00               0
GRID*               6263               01.6045849178E+017.2853268889E+01+
*       0.0000000000E+00               0
GRID*               6264               02.0540895598E+017.1621326211E+01+
*       0.0000000000E+00               0
GRID*               6265               01.3526839186E+016.4612122183E+01+
*       0.0000000000E+00               0
GRID*               6266               04.6281470667E+005.8349570154E+01+
*       0.0000000000E+00               0
GRID*               6267               0-1.763385547E-015.9180212941E+01+
*       0.0000000000E+00               0
GRID*               6268               08.9720553314E+006.1532801614E+01+
*       0.0000000000E+00               0
GRID*               6269               07.9439194879E+006.6456341714E+01+
*       0.0000000000E+00               0
GRID*               6270               0-1.123703844E+015.2132927097E+01+
*       0.0000000000E+00               0
GRID*               6271               0-1.374826216E+014.9107995429E+01+
*       0.0000000000E+00               0
GRID*               6272               0-1.496239653E+015.3131188080E+01+
*       0.0000000000E+00               0
GRID*               6273               09.0342182436E+008.2746068104E+01+
*       0.0000000000E+00               0
GRID*               6274               06.1383515236E+007.8719829279E+01+
*       0.0000000000E+00               0
GRID*               6275               04.5913631918E+008.3152840066E+01+
*       0.0000000000E+00               0
GRID*               6276               01.3978670698E+018.2035192642E+01+
*       0.0000000000E+00               0
GRID*               6277               01.8484564917E+018.0964101731E+01+
*       0.0000000000E+00               0
GRID*               6278               01.5087100794E+017.7241966405E+01+
*       0.0000000000E+00               0
GRID*               6279               01.1539954959E+017.3924359800E+01+
*       0.0000000000E+00               0
GRID*               6280               0-8.096492776E+005.5569762243E+01+
*       0.0000000000E+00               0
GRID*               6281               0-5.465268991E+005.9051777678E+01+
*       0.0000000000E+00               0
GRID*               6282               0-1.899794803E+006.3248585882E+01+
*       0.0000000000E+00               0
GRID*               6283               0-9.819949025E+005.9638135184E+01+
*       0.0000000000E+00               0
GRID*               6284               07.8299410962E+007.5354548234E+01+
*       0.0000000000E+00               0
GRID*               6285               08.7886894800E+007.0965850717E+01+
*       0.0000000000E+00               0
GRID*               6286               03.3870860444E+007.5761320196E+01+
*       0.0000000000E+00               0
GRID*               6287               01.1359609524E+007.1766221635E+01+
*       0.0000000000E+00               0
GRID*               6288               0-5.556286202E-017.5131502680E+01+
*       0.0000000000E+00               0
GRID*               6289               04.2339056249E+006.7886530148E+01+
*       0.0000000000E+00               0
GRID*               6290               02.9119096030E-016.7256712632E+01+
*       0.0000000000E+00               0
GRID*               6291               0-4.997739476E+006.7128277369E+01+
*       0.0000000000E+00               0
GRID*               6292               0-4.006549858E-018.3295487041E+01+
*       0.0000000000E+00               0
GRID*               6293               0-4.486232120E+016.9931585788E+01+
*       0.0000000000E+00               0
GRID*               6294               0-4.058455972E+017.2511062466E+01+
*       0.0000000000E+00               0
GRID*               6295               0-4.418052012E+016.5242589554E+01+
*       0.0000000000E+00               0
GRID*               6296               0-4.033012414E+016.3346218382E+01+
*       0.0000000000E+00               0
GRID*               6297               0-4.417342988E+016.0955325129E+01+
*       0.0000000000E+00               0
GRID*               6298               0-4.870562694E+016.7540692534E+01+
*       0.0000000000E+00               0
GRID*               6299               0-5.266146376E+016.4490398012E+01+
*       0.0000000000E+00               0
GRID*               6300               0-2.890101170E+007.8895549023E+01+
*       0.0000000000E+00               0
GRID*               6301               0-5.141226262E+007.4900450462E+01+
*       0.0000000000E+00               0
GRID*               6302               0-4.986252627E+008.3064434824E+01+
*       0.0000000000E+00               0
GRID*               6303               0-9.963230613E+008.2637064693E+01+
*       0.0000000000E+00               0
GRID*               6304               0-3.578575584E+016.0547408873E+01+
*       0.0000000000E+00               0
GRID*               6305               0-3.299325392E+015.8565230928E+01+
*       0.0000000000E+00               0
GRID*               6306               0-3.753053197E+015.7076776011E+01+
*       0.0000000000E+00               0
GRID*               6307               0-3.579284608E+016.4834673299E+01+
*       0.0000000000E+00               0
GRID*               6308               0-3.610778799E+017.0000195296E+01+
*       0.0000000000E+00               0
GRID*               6309               0-3.156341970E+016.7201385788E+01+
*       0.0000000000E+00               0
GRID*               6310               0-3.635513333E+017.4877774954E+01+
*       0.0000000000E+00               0
GRID*               6311               0-3.181121610E+017.6952808116E+01+
*       0.0000000000E+00               0
GRID*               6312               0-7.301389666E+007.0742505767E+01+
*       0.0000000000E+00               0
GRID*               6313               0-9.635862215E+007.4506552110E+01+
*       0.0000000000E+00               0
GRID*               6314               0-9.492375429E+006.6734379017E+01+
*       0.0000000000E+00               0
GRID*               6315               0-1.461580943E+018.2133777275E+01+
*       0.0000000000E+00               0
GRID*               6316               0-1.951162825E+018.1141854547E+01+
*       0.0000000000E+00               0
GRID*               6317               0-1.212827762E+017.8161209387E+01+
*       0.0000000000E+00               0
GRID*               6318               0-1.428844103E+017.4003264692E+01+
*       0.0000000000E+00               0
GRID*               6319               0-2.684823579E+017.0494798656E+01+
*       0.0000000000E+00               0
GRID*               6320               0-2.653329388E+016.5329276659E+01+
*       0.0000000000E+00               0
GRID*               6321               0-2.832118739E+017.9283752965E+01+
*       0.0000000000E+00               0
GRID*               6322               0-2.838833289E+017.4697852634E+01+
*       0.0000000000E+00               0
GRID*               6323               0-2.357035212E+018.0827292304E+01+
*       0.0000000000E+00               0
GRID*               6324               0-2.083958031E+017.7343359726E+01+
*       0.0000000000E+00               0
GRID*               6325               0-2.335820708E+017.2825743506E+01+
*       0.0000000000E+00               0
GRID*               6326               0-1.929948320E+017.3140305748E+01+
*       0.0000000000E+00               0
GRID*               6327               0-1.680706780E+016.9485648472E+01+
*       0.0000000000E+00               0
GRID*               6328               0-1.099323618E+016.3142987016E+01+
*       0.0000000000E+00               0
GRID*               6329               0-1.362445996E+015.9660971581E+01+
*       0.0000000000E+00               0
GRID*               6330               0-1.329688637E+016.6757215415E+01+
*       0.0000000000E+00               0
GRID*               6331               0-1.830792854E+016.5894256471E+01+
*       0.0000000000E+00               0
GRID*               6332               0-2.976609135E+015.7807892143E+01+
*       0.0000000000E+00               0
GRID*               6333               0-2.621472118E+015.9944202510E+01+
*       0.0000000000E+00               0
GRID*               6334               0-2.473233475E+015.5716230862E+01+
*       0.0000000000E+00               0
GRID*               6335               0-3.151086748E+015.4337259281E+01+
*       0.0000000000E+00               0
GRID*               6336               0-2.149953727E+016.3237615379E+01+
*       0.0000000000E+00               0
GRID*               6337               0-1.798935585E+016.0509182322E+01+
*       0.0000000000E+00               0
GRID*               6338               0-2.196028073E+015.4568008269E+01+
*       0.0000000000E+00               0
GRID*               6339               0-1.681606869E+015.7004330489E+01+
*       0.0000000000E+00               0
GRID*               6340               0-1.932729242E+015.3979398820E+01+
*       0.0000000000E+00               0
GRID*               6341               0-2.010660857E+015.0694865860E+01+
*       0.0000000000E+00               0
GRID*               6342               0-1.971517126E+014.7720776521E+01+
*       0.0000000000E+00               0
GRID*               6343               0-1.697850071E+014.6323777500E+01+
*       0.0000000000E+00               0
GRID*               6344               0-1.325314262E+014.5325516517E+01+
*       0.0000000000E+00               0
GRID*               6345               08.7798884594E+004.1461930273E+01+
*       0.0000000000E+00               0
GRID*               6346               01.3403149827E+014.0281952698E+01+
*       0.0000000000E+00               0
GRID*               6347               04.2785412956E+004.2083071534E+01+
*       0.0000000000E+00               0
GRID*               6348               0-2.219815537E-014.2823375123E+01+
*       0.0000000000E+00               0
GRID*               6349               0-9.128783673E+004.3187933831E+01+
*       0.0000000000E+00               0
GRID*               6350               0-4.745827795E+004.2389602739E+01+
*       0.0000000000E+00               0
GRID*               6351               0-4.737703702E+012.7299971386E+00+
*       0.0000000000E+00               0
GRID*               6352               0-4.698559979E+01-2.440921748E-01+
*       0.0000000000E+00               0
GRID*               6353               0-4.233484196E+01-4.248063004E+00+
*       0.0000000000E+00               0
GRID*               6354               0-4.163891312E+01-8.738227949E+00+
*       0.0000000000E+00               0
GRID*               6355               0-4.750585388E+01-4.663886843E+00+
*       0.0000000000E+00               0
GRID*               6356               0-4.988564031E+01-6.490098145E+00+
*       0.0000000000E+00               0
GRID*               6357               0-4.503473141E+01-2.611878640E+00+
*       0.0000000000E+00               0
GRID*               6358               0-4.181458787E+011.7173166450E-01+
*       0.0000000000E+00               0
GRID*               6359               03.0166093301E+01-3.973290789E+01+
*       0.0000000000E+00               0
GRID*               6360               02.7267629872E+01-3.895713892E+01+
*       0.0000000000E+00               0
GRID*               6361               02.0165752826E+01-5.116545477E+01+
*       0.0000000000E+00               0
GRID*               6362               01.9388898179E+01-4.826728022E+01+
*       0.0000000000E+00               0
GRID*               6363               0-1.228188127E+01-4.016750964E+01+
*       0.0000000000E+00               0
GRID*               6364               0-1.434089604E+01-4.236599580E+01+
*       0.0000000000E+00               0
GRID*               6365               0-1.620702239E+01-3.869419239E+01+
*       0.0000000000E+00               0
GRID*               6366               0-7.883897517E+00-4.130690516E+01+
*       0.0000000000E+00               0
GRID*               6367               0-3.333686420E+00-4.225918073E+01+
*       0.0000000000E+00               0
GRID*               6368               01.2108224804E+00-4.235357406E+01+
*       0.0000000000E+00               0
GRID*               6369               0-5.865543826E+00-4.479158862E+01+
*       0.0000000000E+00               0
GRID*               6370               02.4707605551E+01-3.461022405E+01+
*       0.0000000000E+00               0
GRID*               6371               02.8248729794E+01-3.176207628E+01+
*       0.0000000000E+00               0
GRID*               6372               02.3491402196E+01-4.081256971E+01+
*       0.0000000000E+00               0
GRID*               6373               02.1371164832E+01-4.293359977E+01+
*       0.0000000000E+00               0
GRID*               6374               02.4814112364E+01-3.793328552E+01+
*       0.0000000000E+00               0
GRID*               6375               02.0931377876E+01-3.646565485E+01+
*       0.0000000000E+00               0
GRID*               6376               06.3231556385E+00-4.283358595E+01+
*       0.0000000000E+00               0
GRID*               6377               03.7970004280E+00-4.622387608E+01+
*       0.0000000000E+00               0
GRID*               6378               01.6828952742E+01-3.842029512E+01+
*       0.0000000000E+00               0
GRID*               6379               01.2680860333E+01-4.539428365E+01+
*       0.0000000000E+00               0
GRID*               6380               01.6762869230E+01-4.727037826E+01+
*       0.0000000000E+00               0
GRID*               6381               01.2991342483E+01-4.857998258E+01+
*       0.0000000000E+00               0
GRID*               6382               01.0764677191E+01-4.187788095E+01+
*       0.0000000000E+00               0
GRID*               6383               01.4536203938E+01-4.056827662E+01+
*       0.0000000000E+00               0
GRID*               6384               01.9078416028E+01-4.508158128E+01+
*       0.0000000000E+00               0
GRID*               6385               01.8745135884E+01-4.193669782E+01+
*       0.0000000000E+00               0
GRID*               6386               02.6506899235E+013.9976205530E+01+
*       0.0000000000E+00               0
GRID*               6387               02.3608435680E+014.0751974568E+01+
*       0.0000000000E+00               0
GRID*               6388               01.7640347500E+013.8639275157E+01+
*       0.0000000000E+00               0
GRID*               6389               02.0124364902E+014.3030235373E+01+
*       0.0000000000E+00               0
GRID*               6390               02.0474646895E+014.0394249129E+01+
*       0.0000000000E+00               0
GRID*               6391               02.1124418278E+013.6361014352E+01+
*       0.0000000000E+00               0
GRID*               6392               02.3315753355E+017.9694231966E+01+
*       0.0000000000E+00               0
GRID*               6393               02.7817742827E+017.8238837066E+01+
*       0.0000000000E+00               0
GRID*               6394               02.4094984484E+017.4715480594E+01+
*       0.0000000000E+00               0
GRID*               6395               02.5042885070E+017.0165931311E+01+
*       0.0000000000E+00               0
GRID*               6396               02.9155818087E+016.8759864275E+01+
*       0.0000000000E+00               0
GRID*               6397               02.5601729201E+016.5665709892E+01+
*       0.0000000000E+00               0
GRID*               6398               02.7766166467E+015.5446333010E+01+
*       0.0000000000E+00               0
GRID*               6399               03.0664629524E+015.4670563669E+01+
*       0.0000000000E+00               0
GRID*               6400               02.6649882453E+015.8406556492E+01+
*       0.0000000000E+00               0
GRID*               6401               02.6713506777E+016.1803230556E+01+
*       0.0000000000E+00               0
GRID*               6402               02.9651037894E+016.0862968792E+01+
*       0.0000000000E+00               0
GRID*               6403               04.4950648472E+012.0707703645E+01+
*       0.0000000000E+00               0
GRID*               6404               04.6365110550E+011.6267786703E+01+
*       0.0000000000E+00               0
GRID*               6405               04.1999520274E+011.7208416912E+01+
*       0.0000000000E+00               0
GRID*               6406               04.7913999158E+012.4444864820E+01+
*       0.0000000000E+00               0
GRID*               6407               05.1180357118E+012.8101627745E+01+
*       0.0000000000E+00               0
GRID*               6408               05.2582596708E+012.3423836361E+01+
*       0.0000000000E+00               0
GRID*               6409               04.3548408882E+012.5385495029E+01+
*       0.0000000000E+00               0
GRID*               6410               03.8450863599E+012.6403833119E+01+
*       0.0000000000E+00               0
GRID*               6411               04.1414214284E+013.0140994294E+01+
*       0.0000000000E+00               0
GRID*               6412               06.1804477339E+012.1310530163E+01+
*       0.0000000000E+00               0
GRID*               6413               05.7108003325E+012.2421036882E+01+
*       0.0000000000E+00               0
GRID*               6414               06.0545428681E+012.5970092568E+01+
*       0.0000000000E+00               0
GRID*               6415               06.6467160245E+012.0227561119E+01+
*       0.0000000000E+00               0
GRID*               6416               07.0092554778E+012.3644502124E+01+
*       0.0000000000E+00               0
GRID*               6417               07.1317812328E+011.9012477393E+01+
*       0.0000000000E+00               0
GRID*               6418               06.3029734889E+011.6678505432E+01+
*       0.0000000000E+00               0
GRID*               6419               06.4226415150E+011.2234620717E+01+
*       0.0000000000E+00               0
GRID*               6420               05.9563732243E+011.3317589762E+01+
*       0.0000000000E+00               0
GRID*               6421               04.7357845254E+011.1566367589E+01+
*       0.0000000000E+00               0
GRID*               6422               04.7968911663E+017.4495685610E+00+
*       0.0000000000E+00               0
GRID*               6423               04.4025048761E+018.6517009421E+00+
*       0.0000000000E+00               0
GRID*               6424               05.0308973452E+011.5065654322E+01+
*       0.0000000000E+00               0
GRID*               6425               05.3841645365E+011.8764273957E+01+
*       0.0000000000E+00               0
GRID*               6426               05.4834380069E+011.4062854842E+01+
*       0.0000000000E+00               0
GRID*               6427               05.0379215208E+016.3301677928E+00+
*       0.0000000000E+00               0
GRID*               6428               05.2759001631E+018.1563790948E+00+
*       0.0000000000E+00               0
GRID*               6429               04.7046418715E+013.4155011462E+00+
*       0.0000000000E+00               0
GRID*               6430               05.6031060330E+019.6189701269E+00+
*       0.0000000000E+00               0
GRID*               6431               05.7488353805E+017.4111140142E+00+
*       0.0000000000E+00               0
GRID*               6432               03.3011632481E+017.1303746951E+01+
*       0.0000000000E+00               0
GRID*               6433               03.3570476612E+016.6803525532E+01+
*       0.0000000000E+00               0
GRID*               6434               03.6887343430E+017.4470189786E+01+
*       0.0000000000E+00               0
GRID*               6435               04.1305354839E+017.2139069933E+01+
*       0.0000000000E+00               0
GRID*               6436               03.2472684905E+017.6426528529E+01+
*       0.0000000000E+00               0
GRID*               6437               03.3769886277E+016.1548663813E+01+
*       0.0000000000E+00               0
GRID*               6438               03.7625700671E+016.4092546489E+01+
*       0.0000000000E+00               0
GRID*               6439               03.3706261953E+015.8151989749E+01+
*       0.0000000000E+00               0
GRID*               6440               03.4783477907E+015.5356258690E+01+
*       0.0000000000E+00               0
GRID*               6441               03.6024233428E+015.0020980208E+01+
*       0.0000000000E+00               0
GRID*               6442               03.9065865856E+015.3502406288E+01+
*       0.0000000000E+00               0
GRID*               6443               04.0042454786E+013.4859645684E+01+
*       0.0000000000E+00               0
GRID*               6444               04.5140000069E+013.3841307594E+01+
*       0.0000000000E+00               0
GRID*               6445               03.9574137962E+013.9468347708E+01+
*       0.0000000000E+00               0
GRID*               6446               03.5848352177E+013.5768034408E+01+
*       0.0000000000E+00               0
GRID*               6447               03.7843328365E+014.4271932120E+01+
*       0.0000000000E+00               0
GRID*               6448               04.2037430974E+014.3363543395E+01+
*       0.0000000000E+00               0
GRID*               6449               03.6801088246E+014.7122805694E+01+
*       0.0000000000E+00               0
GRID*               6450               03.4337795234E+014.3227610007E+01+
*       0.0000000000E+00               0
GRID*               6451               07.3522126155E+012.7155071452E+01+
*       0.0000000000E+00               0
GRID*               6452               06.8671474072E+012.8370155178E+01+
*       0.0000000000E+00               0
GRID*               6453               07.7256183636E+013.0642584180E+01+
*       0.0000000000E+00               0
GRID*               6454               07.5311654902E+013.5243861679E+01+
*       0.0000000000E+00               0
GRID*               6455               07.8677264341E+012.5916931125E+01+
*       0.0000000000E+00               0
GRID*               6456               06.3914666801E+012.9613843926E+01+
*       0.0000000000E+00               0
GRID*               6457               06.7344238178E+013.3124413255E+01+
*       0.0000000000E+00               0
GRID*               6458               05.9218192787E+013.0724350645E+01+
*       0.0000000000E+00               0
GRID*               6459               05.4541027577E+013.1817572248E+01+
*       0.0000000000E+00               0
GRID*               6460               05.7910265696E+013.5461323606E+01+
*       0.0000000000E+00               0
GRID*               6461               04.9872430026E+013.2838600707E+01+
*       0.0000000000E+00               0
GRID*               6462               04.8500670528E+013.7557252097E+01+
*       0.0000000000E+00               0
GRID*               6463               07.0571382925E+013.6744780100E+01+
*       0.0000000000E+00               0
GRID*               6464               06.5814575654E+013.7988468848E+01+
*       0.0000000000E+00               0
GRID*               6465               07.3781992378E+014.0107917272E+01+
*       0.0000000000E+00               0
GRID*               6466               07.1325629174E+014.4457540719E+01+
*       0.0000000000E+00               0
GRID*               6467               04.7233350689E+014.2261133252E+01+
*       0.0000000000E+00               0
GRID*               6468               05.1965780647E+014.1258426364E+01+
*       0.0000000000E+00               0
GRID*               6469               04.5502541093E+014.7064717663E+01+
*       0.0000000000E+00               0
GRID*               6470               05.6636765529E+014.0396628585E+01+
*       0.0000000000E+00               0
GRID*               6471               05.5369445690E+014.5100509740E+01+
*       0.0000000000E+00               0
GRID*               6472               06.1313930740E+013.9303406982E+01+
*       0.0000000000E+00               0
GRID*               6473               06.4541075486E+014.2923773827E+01+
*       0.0000000000E+00               0
GRID*               6474               04.6077490262E+017.0016094135E+01+
*       0.0000000000E+00               0
GRID*               6475               05.0200974325E+016.7196551292E+01+
*       0.0000000000E+00               0
GRID*               6476               04.2198426429E+016.7224432410E+01+
*       0.0000000000E+00               0
GRID*               6477               04.2397836094E+016.1969570691E+01+
*       0.0000000000E+00               0
GRID*               6478               04.4606034398E+015.1825964451E+01+
*       0.0000000000E+00               0
GRID*               6479               04.9801954113E+015.0723554307E+01+
*       0.0000000000E+00               0
GRID*               6480               04.3365278877E+015.7161242932E+01+
*       0.0000000000E+00               0
GRID*               6481               04.7938004635E+016.0293128853E+01+
*       0.0000000000E+00               0
GRID*               6482               05.3976176536E+016.3925345080E+01+
*       0.0000000000E+00               0
GRID*               6483               05.4943619318E+015.9117017322E+01+
*       0.0000000000E+00               0
GRID*               6484               06.8389458457E+014.8498808385E+01+
*       0.0000000000E+00               0
GRID*               6485               06.3888813543E+014.9813746519E+01+
*       0.0000000000E+00               0
GRID*               6486               05.8847615788E+014.8482896998E+01+
*       0.0000000000E+00               0
GRID*               6487               06.2695998759E+015.4057931556E+01+
*       0.0000000000E+00               0
GRID*               6488               05.9318296111E+015.7738157792E+01+
*       0.0000000000E+00               0
GRID*               6489               05.4176630906E+014.9344694777E+01+
*       0.0000000000E+00               0
GRID*               6490               05.3280124211E+015.4105941565E+01+
*       0.0000000000E+00               0
GRID*               6491               03.2217558075E+014.1106579585E+01+
*       0.0000000000E+00               0
GRID*               6492               03.4096520986E+012.6937522942E+01+
*       0.0000000000E+00               0
GRID*               6493               03.6230715583E+012.2182023677E+01+
*       0.0000000000E+00               0
GRID*               6494               02.4867685600E+013.3786082258E+01+
*       0.0000000000E+00               0
GRID*               6495               03.3185085371E+013.3770597780E+01+
*       0.0000000000E+00               0
GRID*               6496               03.2716768547E+013.8379299805E+01+
*       0.0000000000E+00               0
GRID*               6497               03.1046661264E+013.0307754288E+01+
*       0.0000000000E+00               0
GRID*               6498               02.7915077633E+013.2919019684E+01+
*       0.0000000000E+00               0
GRID*               6499               02.9554291269E+013.9109142956E+01+
*       0.0000000000E+00               0
GRID*               6500               02.7006109707E+013.7248925750E+01+
*       0.0000000000E+00               0
GRID*               6501               04.1047005257E+019.3826783655E+00+
*       0.0000000000E+00               0
GRID*               6502               04.1658071666E+015.2658793378E+00+
*       0.0000000000E+00               0
GRID*               6503               03.9834535202E+011.3761080662E+01+
*       0.0000000000E+00               0
GRID*               6504               03.8420073124E+011.8200997605E+01+
*       0.0000000000E+00               0
GRID*               6505               08.0084610955E+012.1123985690E+01+
*       0.0000000000E+00               0
GRID*               6506               06.0260407614E+016.2628915423E+00+
*       0.0000000000E+00               0
GRID*               6507               06.2464187685E+015.1743797452E+00+
*       0.0000000000E+00               0
GRID*               6508               06.5299387599E+017.7990245272E+00+
*       0.0000000000E+00               0
GRID*               6509               06.7003162779E+014.0996992261E+00+
*       0.0000000000E+00               0
GRID*               6510               06.1964182795E+012.5635662412E+00+
*       0.0000000000E+00               0
GRID*               6511               07.6055819392E+011.7708406359E+01+
*       0.0000000000E+00               0
GRID*               6512               07.2430424859E+011.4291465354E+01+
*       0.0000000000E+00               0
GRID*               6513               08.1197223487E+011.6402973651E+01+
*       0.0000000000E+00               0
GRID*               6514               06.8765390244E+011.1159940198E+01+
*       0.0000000000E+00               0
GRID*               6515               07.3503397308E+019.8558691644E+00+
*       0.0000000000E+00               0
GRID*               6516               06.2355620303E+01-4.105229669E-01+
*       0.0000000000E+00               0
GRID*               6517               04.2144508990E+01-5.425031091E+00+
*       0.0000000000E+00               0
GRID*               6518               04.1262878929E+01-9.881883039E+00+
*       0.0000000000E+00               0
GRID*               6519               04.7661034832E+014.1050650002E-01+
*       0.0000000000E+00               0
GRID*               6520               04.5250731288E+011.5299072682E+00+
*       0.0000000000E+00               0
GRID*               6521               04.8052472059E+01-2.563582813E+00+
*       0.0000000000E+00               0
GRID*               6522               04.7754260097E+01-5.707191221E+00+
*       0.0000000000E+00               0
GRID*               6523               04.5567135443E+01-4.618695786E+00+
*       0.0000000000E+00               0
GRID*               6524               04.2442720952E+01-2.281422683E+00+
*       0.0000000000E+00               0
GRID*               6525               04.1828104835E+017.2357196336E-01+
*       0.0000000000E+00               0
GRID*               6526               04.5091578022E+01-5.324939226E+01+
*       0.0000000000E+00               0
GRID*               6527               04.9682875157E+01-5.474720241E+01+
*       0.0000000000E+00               0
GRID*               6528               04.6383035111E+01-5.801026524E+01+
*       0.0000000000E+00               0
GRID*               6529               03.2970028030E+01-3.706653458E+01+
*       0.0000000000E+00               0
GRID*               6530               03.4545781292E+01-4.072158775E+01+
*       0.0000000000E+00               0
GRID*               6531               03.9407697143E+01-3.045152496E+01+
*       0.0000000000E+00               0
GRID*               6532               03.8145631574E+01-2.590131893E+01+
*       0.0000000000E+00               0
GRID*               6533               04.2226469792E+01-2.703522859E+01+
*       0.0000000000E+00               0
GRID*               6534               03.6338287473E+01-3.368641488E+01+
*       0.0000000000E+00               0
GRID*               6535               03.1958599482E+01-3.269773502E+01+
*       0.0000000000E+00               0
GRID*               6536               04.0419125691E+01-3.482032453E+01+
*       0.0000000000E+00               0
GRID*               6537               04.1614046972E+01-3.937272510E+01+
*       0.0000000000E+00               0
GRID*               6538               04.4683456642E+01-3.613783519E+01+
*       0.0000000000E+00               0
GRID*               6539               04.3716990577E+01-4.870232269E+01+
*       0.0000000000E+00               0
GRID*               6540               04.2460470505E+01-4.405427585E+01+
*       0.0000000000E+00               0
GRID*               6541               04.7134897995E+01-4.533828260E+01+
*       0.0000000000E+00               0
GRID*               6542               04.0417150531E+01-5.196538551E+01+
*       0.0000000000E+00               0
GRID*               6543               03.7985154004E+01-5.544745442E+01+
*       0.0000000000E+00               0
GRID*               6544               03.6610566559E+01-5.090038484E+01+
*       0.0000000000E+00               0
GRID*               6545               03.8196139554E+01-4.273676519E+01+
*       0.0000000000E+00               0
GRID*               6546               03.6169059101E+01-4.830131343E+01+
*       0.0000000000E+00               0
GRID*               6547               03.3737062573E+01-5.178338233E+01+
*       0.0000000000E+00               0
GRID*               6548               03.5392204825E+01-4.540313850E+01+
*       0.0000000000E+00               0
GRID*               6549               04.5138462428E+01-2.370915780E+01+
*       0.0000000000E+00               0
GRID*               6550               04.3829622628E+01-1.927475817E+01+
*       0.0000000000E+00               0
GRID*               6551               04.8003680834E+01-2.049889341E+01+
*       0.0000000000E+00               0
GRID*               6552               04.6400527998E+01-2.825936383E+01+
*       0.0000000000E+00               0
GRID*               6553               05.0667231949E+01-2.942298178E+01+
*       0.0000000000E+00               0
GRID*               6554               04.7755239313E+01-3.274905256E+01+
*       0.0000000000E+00               0
GRID*               6555               04.8950160594E+01-3.730145313E+01+
*       0.0000000000E+00               0
GRID*               6556               05.3423012308E+01-3.850976133E+01+
*       0.0000000000E+00               0
GRID*               6557               05.0351229637E+01-4.189854396E+01+
*       0.0000000000E+00               0
GRID*               6558               05.4394175075E+01-5.608476349E+01+
*       0.0000000000E+00               0
GRID*               6559               05.9397904561E+01-5.770534257E+01+
*       0.0000000000E+00               0
GRID*               6560               05.5978061733E+01-6.112865447E+01+
*       0.0000000000E+00               0
GRID*               6561               05.3102717986E+01-5.132389052E+01+
*       0.0000000000E+00               0
GRID*               6562               05.1607749709E+01-4.654659080E+01+
*       0.0000000000E+00               0
GRID*               6563               05.6319049627E+01-4.788415188E+01+
*       0.0000000000E+00               0
GRID*               6564               06.2775607209E+01-5.402511634E+01+
*       0.0000000000E+00               0
GRID*               6565               06.0920753012E+01-4.904025234E+01+
*       0.0000000000E+00               0
GRID*               6566               05.9425784736E+01-4.426295261E+01+
*       0.0000000000E+00               0
GRID*               6567               06.5882342317E+01-5.040391707E+01+
*       0.0000000000E+00               0
GRID*               6568               05.0769714519E+01-1.731206426E+01+
*       0.0000000000E+00               0
GRID*               6569               04.9386161840E+01-1.335296130E+01+
*       0.0000000000E+00               0
GRID*               6570               05.3461035324E+01-1.460053178E+01+
*       0.0000000000E+00               0
GRID*               6571               05.7786327100E+01-3.964658899E+01+
*       0.0000000000E+00               0
GRID*               6572               06.2388030485E+01-4.080268945E+01+
*       0.0000000000E+00               0
GRID*               6573               05.6385258057E+01-3.504949817E+01+
*       0.0000000000E+00               0
GRID*               6574               05.2078554318E+01-2.174646390E+01+
*       0.0000000000E+00               0
GRID*               6575               05.6315944095E+01-2.290626107E+01+
*       0.0000000000E+00               0
GRID*               6576               05.3549910410E+01-2.609309022E+01+
*       0.0000000000E+00               0
GRID*               6577               05.4904621726E+01-3.058277895E+01+
*       0.0000000000E+00               0
GRID*               6578               05.9267936518E+01-3.171960661E+01+
*       0.0000000000E+00               0
GRID*               6579               08.2049038434E+011.1480843575E+01+
*       0.0000000000E+00               0
GRID*               6580               07.7810053241E+018.2765459999E+00+
*       0.0000000000E+00               0
GRID*               6581               07.4145018626E+015.1450208436E+00+
*       0.0000000000E+00               0
GRID*               6582               08.2690659751E+016.7699952544E+00+
*       0.0000000000E+00               0
GRID*               6583               08.2975837279E+011.7828488396E+00+
*       0.0000000000E+00               0
GRID*               6584               07.0270340212E+012.3668902915E+00+
*       0.0000000000E+00               0
GRID*               6585               07.4576996145E+017.8756712697E-01+
*       0.0000000000E+00               0
GRID*               6586               05.5925104762E+01-1.143171846E+01+
*       0.0000000000E+00               0
GRID*               6587               05.7308657441E+01-1.539082142E+01+
*       0.0000000000E+00               0
GRID*               6588               06.7435140299E+01-2.577544905E-01+
*       0.0000000000E+00               0
GRID*               6589               06.7086173113E+01-3.784116671E+00+
*       0.0000000000E+00               0
GRID*               6590               06.3818995680E+01-2.051307737E+00+
*       0.0000000000E+00               0
GRID*               6591               05.7778215801E+01-9.085265552E+00+
*       0.0000000000E+00               0
GRID*               6592               05.9626866608E+01-5.763096461E+00+
*       0.0000000000E+00               0
GRID*               6593               06.1621377686E+01-8.899839008E+00+
*       0.0000000000E+00               0
GRID*               6594               05.3930593684E+01-8.294975912E+00+
*       0.0000000000E+00               0
GRID*               6595               06.2006653117E+01-3.936885148E+00+
*       0.0000000000E+00               0
GRID*               6596               06.8818513034E+01-4.636264941E+01+
*       0.0000000000E+00               0
GRID*               6597               07.1538448355E+01-4.270722900E+01+
*       0.0000000000E+00               0
GRID*               6598               07.3994811559E+01-3.835760556E+01+
*       0.0000000000E+00               0
GRID*               6599               06.6747423442E+01-4.176363267E+01+
*       0.0000000000E+00               0
GRID*               6600               06.5107965806E+01-3.714726905E+01+
*       0.0000000000E+00               0
GRID*               6601               06.3503111565E+01-3.287781593E+01+
*       0.0000000000E+00               0
GRID*               6602               06.7862504522E+01-3.383875915E+01+
*       0.0000000000E+00               0
GRID*               6603               05.9127578756E+01-1.957083697E+01+
*       0.0000000000E+00               0
GRID*               6604               06.0598934848E+01-2.391746329E+01+
*       0.0000000000E+00               0
GRID*               6605               06.1591648194E+01-1.640202364E+01+
*       0.0000000000E+00               0
GRID*               6606               06.2022475234E+01-2.841109671E+01+
*       0.0000000000E+00               0
GRID*               6607               06.4834109894E+01-2.507567261E+01+
*       0.0000000000E+00               0
GRID*               6608               07.8587585451E+01-1.319206758E+00+
*       0.0000000000E+00               0
GRID*               6609               07.4712907037E+01-4.097337310E+00+
*       0.0000000000E+00               0
GRID*               6610               08.3111748172E+01-3.102055598E+00+
*       0.0000000000E+00               0
GRID*               6611               08.2826570643E+01-8.089202012E+00+
*       0.0000000000E+00               0
GRID*               6612               06.4707400889E+01-1.229749391E+01+
*       0.0000000000E+00               0
GRID*               6613               06.6526322204E+01-1.647750945E+01+
*       0.0000000000E+00               0
GRID*               6614               06.6556051696E+01-8.975324817E+00+
*       0.0000000000E+00               0
GRID*               6615               07.0172196315E+01-7.181771570E+00+
*       0.0000000000E+00               0
GRID*               6616               07.4182785621E+01-9.288545455E+00+
*       0.0000000000E+00               0
GRID*               6617               07.1591256552E+01-3.498137989E+01+
*       0.0000000000E+00               0
GRID*               6618               06.9986402311E+01-3.071192678E+01+
*       0.0000000000E+00               0
GRID*               6619               07.6118709348E+01-3.523077319E+01+
*       0.0000000000E+00               0
GRID*               6620               07.8063238082E+01-3.062949569E+01+
*       0.0000000000E+00               0
GRID*               6621               06.9298737625E+01-2.648521997E+01+
*       0.0000000000E+00               0
GRID*               6622               07.3027489656E+01-2.762784072E+01+
*       0.0000000000E+00               0
GRID*               6623               06.7875197239E+01-2.199158655E+01+
*       0.0000000000E+00               0
GRID*               6624               07.0990949934E+01-1.788705682E+01+
*       0.0000000000E+00               0
GRID*               6625               08.2995258536E+01-1.329645015E+01+
*       0.0000000000E+00               0
GRID*               6626               08.2143443589E+01-1.821858023E+01+
*       0.0000000000E+00               0
GRID*               6627               07.8892184236E+01-1.141135933E+01+
*       0.0000000000E+00               0
GRID*               6628               07.4351473513E+01-1.449579359E+01+
*       0.0000000000E+00               0
GRID*               6629               07.5700348549E+01-2.000987069E+01+
*       0.0000000000E+00               0
GRID*               6630               08.0736096975E+01-2.301152566E+01+
*       0.0000000000E+00               0
GRID*               6631               07.7375573396E+01-2.640278889E+01+
*       0.0000000000E+00               0
GRID*               6632               05.1158539679E+01-7.146753534E+00+
*       0.0000000000E+00               0
GRID*               6633               04.8673203063E+01-9.201866506E+00+
*       0.0000000000E+00               0
GRID*               6634               03.1616989237E+01-2.838195657E+01+
*       0.0000000000E+00               0
GRID*               6635               04.5981882258E+01-1.191339899E+01+
*       0.0000000000E+00               0
GRID*               6636               03.4405668129E+01-2.479409644E+01+
*       0.0000000000E+00               0
GRID*               6637               03.7224440778E+01-2.137780007E+01+
*       0.0000000000E+00               0
GRID*               6638               04.1975837706E+01-1.403297783E+01+
*       0.0000000000E+00               0
GRID*               6639               03.9110619300E+01-1.724324222E+01+
*       0.0000000000E+00               0
GRID*               6640               03.1616825244E+01-5.390441280E+01+
*       0.0000000000E+00               0
GRID*               6641               0-1.113462002E+01-6.372007391E+01+
*       0.0000000000E+00               0
GRID*               6642               0-8.094991548E+00-6.005588387E+01+
*       0.0000000000E+00               0
GRID*               6643               0-6.547673841E+00-6.482322418E+01+
*       0.0000000000E+00               0
GRID*               6644               0-1.608628663E+01-6.257583391E+01+
*       0.0000000000E+00               0
GRID*               6645               0-2.002591455E+01-6.129649644E+01+
*       0.0000000000E+00               0
GRID*               6646               0-1.662156565E+01-5.767339613E+01+
*       0.0000000000E+00               0
GRID*               6647               0-1.453896892E+01-6.734317422E+01+
*       0.0000000000E+00               0
GRID*               6648               0-1.266407212E+01-7.246868528E+01+
*       0.0000000000E+00               0
GRID*               6649               0-1.761573873E+01-7.132444528E+01+
*       0.0000000000E+00               0
GRID*               6650               0-1.836864834E+01-5.288768025E+01+
*       0.0000000000E+00               0
GRID*               6651               0-1.442902041E+01-5.416701772E+01+
*       0.0000000000E+00               0
GRID*               6652               0-2.125895792E+01-5.316077826E+01+
*       0.0000000000E+00               0
GRID*               6653               0-1.906641268E+01-4.965439985E+01+
*       0.0000000000E+00               0
GRID*               6654               0-1.945784970E+01-4.668031030E+01+
*       0.0000000000E+00               0
GRID*               6655               0-2.050281673E+01-4.243599865E+01+
*       0.0000000000E+00               0
GRID*               6656               0-1.722107013E+01-4.513699020E+01+
*       0.0000000000E+00               0
GRID*               6657               0-1.329592901E+01-4.661030745E+01+
*       0.0000000000E+00               0
GRID*               6658               05.4862014709E-01-4.996175735E+01+
*       0.0000000000E+00               0
GRID*               6659               05.6609533052E+00-5.044176925E+01+
*       0.0000000000E+00               0
GRID*               6660               0-8.690142104E+00-4.801143408E+01+
*       0.0000000000E+00               0
GRID*               6661               0-4.139931008E+00-4.896370964E+01+
*       0.0000000000E+00               0
GRID*               6662               0-1.157031619E+01-5.078242848E+01+
*       0.0000000000E+00               0
GRID*               6663               0-9.823233506E+00-5.556814435E+01+
*       0.0000000000E+00               0
GRID*               6664               0-5.236287327E+00-5.667129463E+01+
*       0.0000000000E+00               0
GRID*               6665               0-2.275978131E+00-5.318160281E+01+
*       0.0000000000E+00               0
GRID*               6666               0-5.477361724E-01-5.766934233E+01+
*       0.0000000000E+00               0
GRID*               6667               05.2202859522E+01-6.439986068E+01+
*       0.0000000000E+00               0
GRID*               6668               0-1.098309844E+01-7.723683053E+01+
*       0.0000000000E+00               0
GRID*               6669               0-7.906328632E+00-7.325555946E+01+
*       0.0000000000E+00               0
GRID*               6670               0-9.339285638E+00-8.231649223E+01+
*       0.0000000000E+00               0
GRID*               6671               0-4.362319762E+00-8.274400329E+01+
*       0.0000000000E+00               0
GRID*               6672               0-1.409702913E+01-8.152961805E+01+
*       0.0000000000E+00               0
GRID*               6673               0-4.974770794E+00-6.936765963E+01+
*       0.0000000000E+00               0
GRID*               6674               0-3.293797112E+00-7.413580487E+01+
*       0.0000000000E+00               0
GRID*               6675               0-1.935142321E+00-6.570346959E+01+
*       0.0000000000E+00               0
GRID*               6676               01.0185037276E+01-5.144600563E+01+
*       0.0000000000E+00               0
GRID*               6677               06.9366569949E+00-5.518388691E+01+
*       0.0000000000E+00               0
GRID*               6678               01.4267046173E+01-5.332210024E+01+
*       0.0000000000E+00               0
GRID*               6679               01.0212101625E+00-6.211103185E+01+
*       0.0000000000E+00               0
GRID*               6680               02.5941132101E+00-6.665546729E+01+
*       0.0000000000E+00               0
GRID*               6681               03.9815193592E+00-5.862134003E+01+
*       0.0000000000E+00               0
GRID*               6682               08.5056033298E+00-5.962557642E+01+
*       0.0000000000E+00               0
GRID*               6683               04.7244391980E+01-6.248008411E+01+
*       0.0000000000E+00               0
GRID*               6684               04.2653094845E+01-6.098227396E+01+
*       0.0000000000E+00               0
GRID*               6685               04.8472919255E+01-6.737186940E+01+
*       0.0000000000E+00               0
GRID*               6686               04.4349435193E+01-7.019141225E+01+
*       0.0000000000E+00               0
GRID*               6687               01.8460159881E+01-5.410646697E+01+
*       0.0000000000E+00               0
GRID*               6688               01.5653854674E+01-5.697249002E+01+
*       0.0000000000E+00               0
GRID*               6689               03.8212398328E+01-5.913514548E+01+
*       0.0000000000E+00               0
GRID*               6690               03.9073755197E+01-6.360496436E+01+
*       0.0000000000E+00               0
GRID*               6691               02.1552561327E+01-5.481584456E+01+
*       0.0000000000E+00               0
GRID*               6692               02.5461857036E+01-5.472423494E+01+
*       0.0000000000E+00               0
GRID*               6693               02.3756264091E+01-5.766524714E+01+
*       0.0000000000E+00               0
GRID*               6694               03.4405814356E+01-5.807014482E+01+
*       0.0000000000E+00               0
GRID*               6695               03.0922064916E+01-5.597804564E+01+
*       0.0000000000E+00               0
GRID*               6696               03.1149309240E+01-5.966573670E+01+
*       0.0000000000E+00               0
GRID*               6697               02.8360320128E+01-5.550000469E+01+
*       0.0000000000E+00               0
GRID*               6698               0-1.644224107E+00-7.851228185E+01+
*       0.0000000000E+00               0
GRID*               6699               01.2873337312E+00-7.462438201E+01+
*       0.0000000000E+00               0
GRID*               6700               02.1881108086E-01-8.323258044E+01+
*       0.0000000000E+00               0
GRID*               6701               05.2120683185E+00-8.308996888E+01+
*       0.0000000000E+00               0
GRID*               6702               04.0127898292E+00-7.101451152E+01+
*       0.0000000000E+00               0
GRID*               6703               05.6623628342E+00-7.539098849E+01+
*       0.0000000000E+00               0
GRID*               6704               01.2994349349E+01-6.049791518E+01+
*       0.0000000000E+00               0
GRID*               6705               01.0039211713E+01-6.393536830E+01+
*       0.0000000000E+00               0
GRID*               6706               01.7187463057E+01-6.128228191E+01+
*       0.0000000000E+00               0
GRID*               6707               06.9691423131E+00-6.742207377E+01+
*       0.0000000000E+00               0
GRID*               6708               01.1457888332E+01-6.829441253E+01+
*       0.0000000000E+00               0
GRID*               6709               03.9375088730E+01-6.807512546E+01+
*       0.0000000000E+00               0
GRID*               6710               03.4934392213E+01-6.622799699E+01+
*       0.0000000000E+00               0
GRID*               6711               04.0210072209E+01-7.281444488E+01+
*       0.0000000000E+00               0
GRID*               6712               03.5792060800E+01-7.514556473E+01+
*       0.0000000000E+00               0
GRID*               6713               02.2453288082E+01-6.194441172E+01+
*       0.0000000000E+00               0
GRID*               6714               01.9793782757E+01-6.546983687E+01+
*       0.0000000000E+00               0
GRID*               6715               02.6362583791E+01-6.185280211E+01+
*       0.0000000000E+00               0
GRID*               6716               02.9846333231E+01-6.394490129E+01+
*       0.0000000000E+00               0
GRID*               6717               03.0147666763E+01-6.841506239E+01+
*       0.0000000000E+00               0
GRID*               6718               06.7549559314E+00-7.924412172E+01+
*       0.0000000000E+00               0
GRID*               6719               09.4804120293E+00-7.563425122E+01+
*       0.0000000000E+00               0
GRID*               6720               09.0301175136E+00-8.333323161E+01+
*       0.0000000000E+00               0
GRID*               6721               01.3974569974E+01-8.262235621E+01+
*       0.0000000000E+00               0
GRID*               6722               01.2711068438E+01-7.287479909E+01+
*       0.0000000000E+00               0
GRID*               6723               01.3803661535E+01-7.672793232E+01+
*       0.0000000000E+00               0
GRID*               6724               01.5781137838E+01-6.938809362E+01+
*       0.0000000000E+00               0
GRID*               6725               02.1046962863E+01-7.005022343E+01+
*       0.0000000000E+00               0
GRID*               6726               03.1409615357E+01-7.794982013E+01+
*       0.0000000000E+00               0
GRID*               6727               02.6754673279E+01-7.976212867E+01+
*       0.0000000000E+00               0
GRID*               6728               03.0853280303E+01-7.350241350E+01+
*       0.0000000000E+00               0
GRID*               6729               02.5765221321E+01-7.121931780E+01+
*       0.0000000000E+00               0
GRID*               6730               02.1752576402E+01-7.513757454E+01+
*       0.0000000000E+00               0
GRID*               6731               02.1923484840E+01-8.103199844E+01+
*       0.0000000000E+00               0
GRID*               6732               01.7205226383E+01-7.986290407E+01+
*       0.0000000000E+00               0
GRID*               6733               0-1.899281985E+01-8.053755661E+01+
*       0.0000000000E+00               0
GRID*               6734               0-2.860601411E+01-5.942501880E+01+
*       0.0000000000E+00               0
GRID*               6735               0-2.930564218E+01-6.261513682E+01+
*       0.0000000000E+00               0
GRID*               6736               0-3.164249394E+01-6.108555731E+01+
*       0.0000000000E+00               0
GRID*               6737               0-2.649272896E+01-5.726725924E+01+
*       0.0000000000E+00               0
GRID*               6738               0-2.882958072E+01-5.573767974E+01+
*       0.0000000000E+00               0
GRID*               6739               0-2.363874457E+01-5.498698942E+01+
*       0.0000000000E+00               0
GRID*               6740               0-2.341517796E+01-5.867432848E+01+
*       0.0000000000E+00               0
GRID*               6741               0-2.832077598E+01-7.815639720E+01+
*       0.0000000000E+00               0
GRID*               6742               0-3.225256133E+01-7.685251997E+01+
*       0.0000000000E+00               0
GRID*               6743               0-2.882695649E+01-7.347110818E+01+
*       0.0000000000E+00               0
GRID*               6744               0-2.356998445E+01-7.970007114E+01+
*       0.0000000000E+00               0
GRID*               6745               0-2.031800653E+01-7.561247088E+01+
*       0.0000000000E+00               0
GRID*               6746               0-2.979348679E+01-6.595036850E+01+
*       0.0000000000E+00               0
GRID*               6747               0-2.675700696E+01-6.428982998E+01+
*       0.0000000000E+00               0
GRID*               6748               0-3.000179672E+01-6.989614631E+01+
*       0.0000000000E+00               0
GRID*               6749               0-2.607001136E+01-7.120002354E+01+
*       0.0000000000E+00               0
GRID*               6750               0-3.255043193E+01-6.822145314E+01+
*       0.0000000000E+00               0
GRID*               6751               0-2.219290333E+01-7.048695982E+01+
*       0.0000000000E+00               0
GRID*               6752               0-2.336774355E+01-6.691199794E+01+
*       0.0000000000E+00               0
GRID*               6753               0-2.287989894E+01-6.357676626E+01+
*       0.0000000000E+00               0
GRID*               6754               0-3.160163460E+01-5.458945716E+01+
*       0.0000000000E+00               0
GRID*               6755               0-2.568186712E+01-3.383163032E+01+
*       0.0000000000E+00               0
GRID*               6756               0-2.910218811E+01-3.083846438E+01+
*       0.0000000000E+00               0
GRID*               6757               0-2.345272820E+01-4.148382349E+01+
*       0.0000000000E+00               0
GRID*               6758               0-2.121594863E+01-3.994050339E+01+
*       0.0000000000E+00               0
GRID*               6759               0-2.622478233E+01-4.033560109E+01+
*       0.0000000000E+00               0
GRID*               6760               0-2.873256727E+01-3.854814838E+01+
*       0.0000000000E+00               0
GRID*               6761               0-2.667364504E+01-3.720087552E+01+
*       0.0000000000E+00               0
GRID*               6762               0-2.317408219E+01-3.561908303E+01+
*       0.0000000000E+00               0
GRID*               6763               0-2.022417072E+01-3.657125819E+01+
*       0.0000000000E+00               0
GRID*               6764               0-4.710146772E+01-2.689831099E+01+
*       0.0000000000E+00               0
GRID*               6765               0-5.005997558E+01-3.026708354E+01+
*       0.0000000000E+00               0
GRID*               6766               0-5.162172325E+01-2.613260283E+01+
*       0.0000000000E+00               0
GRID*               6767               0-4.413914721E+01-2.370686779E+01+
*       0.0000000000E+00               0
GRID*               6768               0-4.577843761E+01-1.955091920E+01+
*       0.0000000000E+00               0
GRID*               6769               0-4.125436944E+01-2.049395670E+01+
*       0.0000000000E+00               0
GRID*               6770               0-4.257739955E+01-2.784134850E+01+
*       0.0000000000E+00               0
GRID*               6771               0-3.820272704E+01-2.869557188E+01+
*       0.0000000000E+00               0
GRID*               6772               0-4.116504754E+01-3.188701509E+01+
*       0.0000000000E+00               0
GRID*               6773               0-3.960172538E+01-3.576284245E+01+
*       0.0000000000E+00               0
GRID*               6774               0-3.575393789E+01-3.634420469E+01+
*       0.0000000000E+00               0
GRID*               6775               0-3.856528824E+01-3.936580866E+01+
*       0.0000000000E+00               0
GRID*               6776               0-5.290769776E+01-3.359962691E+01+
*       0.0000000000E+00               0
GRID*               6777               0-5.584662338E+01-3.709777196E+01+
*       0.0000000000E+00               0
GRID*               6778               0-5.751915673E+01-3.299952043E+01+
*       0.0000000000E+00               0
GRID*               6779               0-4.838744223E+01-3.436533507E+01+
*       0.0000000000E+00               0
GRID*               6780               0-4.397639790E+01-3.490861906E+01+
*       0.0000000000E+00               0
GRID*               6781               0-4.682412007E+01-3.824116243E+01+
*       0.0000000000E+00               0
GRID*               6782               0-4.860404180E+01-1.056477063E+01+
*       0.0000000000E+00               0
GRID*               6783               0-5.293469660E+01-1.002319546E+01+
*       0.0000000000E+00               0
GRID*               6784               0-4.727337896E+01-1.521793803E+01+
*       0.0000000000E+00               0
GRID*               6785               0-5.015815673E+01-1.843084911E+01+
*       0.0000000000E+00               0
GRID*               6786               0-4.422432267E+01-1.168484071E+01+
*       0.0000000000E+00               0
GRID*               6787               0-6.220518179E+01-3.225536064E+01+
*       0.0000000000E+00               0
GRID*               6788               0-5.926625618E+01-2.875721559E+01+
*       0.0000000000E+00               0
GRID*               6789               0-6.529057713E+01-3.590101957E+01+
*       0.0000000000E+00               0
GRID*               6790               0-6.703767658E+01-3.165871473E+01+
*       0.0000000000E+00               0
GRID*               6791               0-5.619372331E+01-2.519235470E+01+
*       0.0000000000E+00               0
GRID*               6792               0-6.087974837E+01-2.444819491E+01+
*       0.0000000000E+00               0
GRID*               6793               0-5.323521544E+01-2.182358215E+01+
*       0.0000000000E+00               0
GRID*               6794               0-5.473015680E+01-1.749060099E+01+
*       0.0000000000E+00               0
GRID*               6795               0-7.883274297E+01-2.555445171E+01+
*       0.0000000000E+00               0
GRID*               6796               0-8.027283456E+01-2.106347496E+01+
*       0.0000000000E+00               0
GRID*               6797               0-7.514963279E+01-2.196741160E+01+
*       0.0000000000E+00               0
GRID*               6798               0-7.715413139E+01-3.025925905E+01+
*       0.0000000000E+00               0
GRID*               6799               0-7.191630656E+01-3.088138101E+01+
*       0.0000000000E+00               0
GRID*               6800               0-7.536089675E+01-3.468225171E+01+
*       0.0000000000E+00               0
GRID*               6801               0-6.883091122E+01-2.723572207E+01+
*       0.0000000000E+00               0
GRID*               6802               0-7.188826328E+01-1.834697386E+01+
*       0.0000000000E+00               0
GRID*               6803               0-7.335471078E+01-1.421928039E+01+
*       0.0000000000E+00               0
GRID*               6804               0-6.865324969E+01-1.508981940E+01+
*       0.0000000000E+00               0
GRID*               6805               0-7.044817169E+01-2.283795061E+01+
*       0.0000000000E+00               0
GRID*               6806               0-6.556954171E+01-2.361528434E+01+
*       0.0000000000E+00               0
GRID*               6807               0-5.626931737E+01-1.279459097E+01+
*       0.0000000000E+00               0
GRID*               6808               0-5.755091588E+01-8.719918491E+00+
*       0.0000000000E+00               0
GRID*               6809               0-5.934637608E+01-1.618732401E+01+
*       0.0000000000E+00               0
GRID*               6810               0-6.249700884E+01-2.005042345E+01+
*       0.0000000000E+00               0
GRID*               6811               0-6.403616941E+01-1.535441344E+01+
*       0.0000000000E+00               0
GRID*               6812               0-6.032296968E+01-7.571696019E+00+
*       0.0000000000E+00               0
GRID*               6813               0-6.323877262E+01-8.621605164E+00+
*       0.0000000000E+00               0
GRID*               6814               0-6.267620566E+01-4.701987184E+00+
*       0.0000000000E+00               0
GRID*               6815               0-6.550261692E+01-1.122671996E+01+
*       0.0000000000E+00               0
GRID*               6816               0-6.785585290E+01-8.357011129E+00+
*       0.0000000000E+00               0
GRID*               6817               0-7.315692024E+01-3.916504472E+01+
*       0.0000000000E+00               0
GRID*               6818               0-4.034269347E+01-7.265266238E+01+
*       0.0000000000E+00               0
GRID*               6819               0-4.462038187E+01-7.007306450E+01+
*       0.0000000000E+00               0
GRID*               6820               0-3.630501555E+01-7.004253527E+01+
*       0.0000000000E+00               0
GRID*               6821               0-3.609670563E+01-6.609675746E+01+
*       0.0000000000E+00               0
GRID*               6822               0-3.679641977E+01-7.477735807E+01+
*       0.0000000000E+00               0
GRID*               6823               0-3.491839988E+01-6.188603784E+01+
*       0.0000000000E+00               0
GRID*               6824               0-3.421877182E+01-5.869591982E+01+
*       0.0000000000E+00               0
GRID*               6825               0-3.867298350E+01-6.370711996E+01+
*       0.0000000000E+00               0
GRID*               6826               0-4.806258974E+01-6.722985562E+01+
*       0.0000000000E+00               0
GRID*               6827               0-5.201834013E+01-6.417944903E+01+
*       0.0000000000E+00               0
GRID*               6828               0-4.329349712E+01-6.507463070E+01+
*       0.0000000000E+00               0
GRID*               6829               0-4.211519137E+01-6.086391108E+01+
*       0.0000000000E+00               0
GRID*               6830               0-6.813606168E+01-3.944998737E+01+
*       0.0000000000E+00               0
GRID*               6831               0-6.330356689E+01-4.004663328E+01+
*       0.0000000000E+00               0
GRID*               6832               0-7.116991001E+01-4.331065843E+01+
*       0.0000000000E+00               0
GRID*               6833               0-6.846929926E+01-4.751299644E+01+
*       0.0000000000E+00               0
GRID*               6834               0-5.874280042E+01-4.059684377E+01+
*       0.0000000000E+00               0
GRID*               6835               0-6.158828497E+01-4.414581157E+01+
*       0.0000000000E+00               0
GRID*               6836               0-5.413134146E+01-4.119695024E+01+
*       0.0000000000E+00               0
GRID*               6837               0-6.667439397E+01-5.101121874E+01+
*       0.0000000000E+00               0
GRID*               6838               0-6.351235383E+01-5.487831624E+01+
*       0.0000000000E+00               0
GRID*               6839               0-6.435414615E+01-4.709382337E+01+
*       0.0000000000E+00               0
GRID*               6840               0-5.979337968E+01-4.764403386E+01+
*       0.0000000000E+00               0
GRID*               6841               0-4.945110637E+01-4.168139034E+01+
*       0.0000000000E+00               0
GRID*               6842               0-5.234728341E+01-4.518046215E+01+
*       0.0000000000E+00               0
GRID*               6843               0-4.504006203E+01-4.222467433E+01+
*       0.0000000000E+00               0
GRID*               6844               0-4.063795568E+01-4.221715056E+01+
*       0.0000000000E+00               0
GRID*               6845               0-4.326494198E+01-4.565737847E+01+
*       0.0000000000E+00               0
GRID*               6846               0-3.679016819E+01-4.279851280E+01+
*       0.0000000000E+00               0
GRID*               6847               0-3.388038918E+01-4.264123361E+01+
*       0.0000000000E+00               0
GRID*               6848               0-3.595305662E+01-4.549257550E+01+
*       0.0000000000E+00               0
GRID*               6849               0-5.567738365E+01-6.031475986E+01+
*       0.0000000000E+00               0
GRID*               6850               0-5.039474850E+01-5.836673266E+01+
*       0.0000000000E+00               0
GRID*               6851               0-5.925962941E+01-5.683331515E+01+
*       0.0000000000E+00               0
GRID*               6852               0-5.830651643E+01-5.254704458E+01+
*       0.0000000000E+00               0
GRID*               6853               0-5.554065526E+01-4.959903278E+01+
*       0.0000000000E+00               0
GRID*               6854               0-5.086042017E+01-5.008347287E+01+
*       0.0000000000E+00               0
GRID*               6855               0-4.477775958E+01-5.767773025E+01+
*       0.0000000000E+00               0
GRID*               6856               0-4.015724597E+01-5.631021951E+01+
*       0.0000000000E+00               0
GRID*               6857               0-4.843680310E+01-5.381304108E+01+
*       0.0000000000E+00               0
GRID*               6858               0-4.524343125E+01-4.939447046E+01+
*       0.0000000000E+00               0
GRID*               6859               0-4.084132490E+01-4.938694668E+01+
*       0.0000000000E+00               0
GRID*               6860               0-3.487754054E+01-5.538993768E+01+
*       0.0000000000E+00               0
GRID*               6861               0-3.754010875E+01-5.220375685E+01+
*       0.0000000000E+00               0
GRID*               6862               0-3.556161948E+01-4.846666486E+01+
*       0.0000000000E+00               0
GRID*               6863               0-3.150060266E+01-4.081502243E+01+
*       0.0000000000E+00               0
GRID*               6864               0-3.194946536E+01-3.768029686E+01+
*       0.0000000000E+00               0
GRID*               6865               0-4.030825028E+01-1.339139535E+01+
*       0.0000000000E+00               0
GRID*               6866               0-3.298590250E+01-3.407733064E+01+
*       0.0000000000E+00               0
GRID*               6867               0-3.859530287E+01-1.760067584E+01+
*       0.0000000000E+00               0
GRID*               6868               0-3.695601247E+01-2.175662442E+01+
*       0.0000000000E+00               0
GRID*               6869               0-3.290666064E+01-2.950237222E+01+
*       0.0000000000E+00               0
GRID*               6870               0-3.431901265E+01-2.545670562E+01+
*       0.0000000000E+00               0
GRID*               6871               0-5.075483171E+017.7748988574E+00+
*       0.0000000000E+00               0
GRID*               6872               0-5.352688571E+018.9231212354E+00+
*       0.0000000000E+00               0
GRID*               6873               0-4.022007790E+011.7350910191E+01+
*       0.0000000000E+00               0
GRID*               6874               0-4.144522599E+012.1853555756E+01+
*       0.0000000000E+00               0
GRID*               6875               0-3.683619930E+012.0749386668E+01+
*       0.0000000000E+00               0
GRID*               6876               0-4.456425125E+011.4136860365E+01+
*       0.0000000000E+00               0
GRID*               6877               0-4.778473230E+011.0858180458E+01+
*       0.0000000000E+00               0
GRID*               6878               0-4.804958565E+011.5176399373E+01+
*       0.0000000000E+00               0
GRID*               6879               0-3.995522456E+011.3032691276E+01+
*       0.0000000000E+00               0
GRID*               6880               0-4.134860987E+018.7078030498E+00+
*       0.0000000000E+00               0
GRID*               6881               0-4.726949731E+016.7353598492E+00+
*       0.0000000000E+00               0
GRID*               6882               0-4.440693761E+015.8132787391E+00+
*       0.0000000000E+00               0
GRID*               6883               0-4.145614958E+014.7024403391E+00+
*       0.0000000000E+00               0
GRID*               6884               0-3.448345854E+012.4635913398E+01+
*       0.0000000000E+00               0
GRID*               6885               0-3.119056082E+012.7806943192E+01+
*       0.0000000000E+00               0
GRID*               6886               0-3.476844966E+012.8423062027E+01+
*       0.0000000000E+00               0
GRID*               6887               0-2.800327627E+013.1047728453E+01+
*       0.0000000000E+00               0
GRID*               6888               0-2.783433027E+013.4715145368E+01+
*       0.0000000000E+00               0
GRID*               6889               0-6.256690118E+01-1.762288683E+00+
*       0.0000000000E+00               0
GRID*               6890               0-6.295833868E+011.2118005251E+00+
*       0.0000000000E+00               0
GRID*               6891               0-6.548270411E+01-2.812197829E+00+
*       0.0000000000E+00               0
GRID*               6892               0-6.859657069E+01-4.539944081E+00+
*       0.0000000000E+00               0
GRID*               6893               0-7.086041499E+01-7.145058881E+00+
*       0.0000000000E+00               0
GRID*               6894               0-6.848726621E+01-1.600245581E+00+
*       0.0000000000E+00               0
GRID*               6895               0-8.140418931E+01-1.619798549E+01+
*       0.0000000000E+00               0
GRID*               6896               0-8.233912299E+01-1.171400392E+01+
*       0.0000000000E+00               0
GRID*               6897               0-7.752465805E+01-1.299245327E+01+
*       0.0000000000E+00               0
GRID*               6898               0-7.428964446E+01-9.735298814E+00+
*       0.0000000000E+00               0
GRID*               6899               0-7.503036226E+01-5.918231766E+00+
*       0.0000000000E+00               0
GRID*               6900               0-4.901196501E+011.9434538011E+01+
*       0.0000000000E+00               0
GRID*               6901               0-5.223244606E+011.6155858104E+01+
*       0.0000000000E+00               0
GRID*               6902               0-4.978944327E+012.3862940216E+01+
*       0.0000000000E+00               0
GRID*               6903               0-5.426153317E+012.4942198381E+01+
*       0.0000000000E+00               0
GRID*               6904               0-5.085615103E+012.8391141855E+01+
*       0.0000000000E+00               0
GRID*               6905               0-4.560658286E+012.2883481485E+01+
*       0.0000000000E+00               0
GRID*               6906               0-4.222270425E+012.6281957961E+01+
*       0.0000000000E+00               0
GRID*               6907               0-3.858820805E+012.9489372780E+01+
*       0.0000000000E+00               0
GRID*               6908               0-3.529531032E+013.2660402574E+01+
*       0.0000000000E+00               0
GRID*               6909               0-4.274956492E+013.0519298509E+01+
*       0.0000000000E+00               0
GRID*               6910               0-4.712423113E+013.1970439368E+01+
*       0.0000000000E+00               0
GRID*               6911               0-4.348973492E+013.5177854187E+01+
*       0.0000000000E+00               0
GRID*               6912               0-5.159632103E+013.3049697533E+01+
*       0.0000000000E+00               0
GRID*               6913               0-5.647058959E+013.4319251621E+01+
*       0.0000000000E+00               0
GRID*               6914               0-5.273866968E+013.7898549134E+01+
*       0.0000000000E+00               0
GRID*               6915               0-5.358716023E+014.3280578445E+01+
*       0.0000000000E+00               0
GRID*               6916               0-5.917918640E+014.4162094424E+01+
*       0.0000000000E+00               0
GRID*               6917               0-5.515340840E+014.8274569647E+01+
*       0.0000000000E+00               0
GRID*               6918               0-4.871289168E+014.2011024357E+01+
*       0.0000000000E+00               0
GRID*               6919               0-4.438409732E+014.5244745093E+01+
*       0.0000000000E+00               0
GRID*               6920               0-4.353560677E+013.9862715782E+01+
*       0.0000000000E+00               0
GRID*               6921               0-3.175095871E+013.5106553878E+01+
*       0.0000000000E+00               0
GRID*               6922               0-3.557071710E+013.6172864632E+01+
*       0.0000000000E+00               0
GRID*               6923               0-2.810973704E+013.8227607426E+01+
*       0.0000000000E+00               0
GRID*               6924               0-2.937133035E+014.0150945146E+01+
*       0.0000000000E+00               0
GRID*               6925               0-3.214338448E+014.1299167204E+01+
*       0.0000000000E+00               0
GRID*               6926               0-3.916094056E+013.8411574923E+01+
*       0.0000000000E+00               0
GRID*               6927               0-3.561658895E+014.0857726227E+01+
*       0.0000000000E+00               0
GRID*               6928               0-3.573360795E+014.3537877494E+01+
*       0.0000000000E+00               0
GRID*               6929               0-8.320331532E+01-2.322391871E+00+
*       0.0000000000E+00               0
GRID*               6930               0-8.320324455E+012.6729015128E+00+
*       0.0000000000E+00               0
GRID*               6931               0-7.875442928E+01-4.079599805E+00+
*       0.0000000000E+00               0
GRID*               6932               0-7.532519981E+01-1.489359872E+00+
*       0.0000000000E+00               0
GRID*               6933               0-8.290847777E+01-6.751263765E+00+
*       0.0000000000E+00               0
GRID*               6934               0-5.520291641E+011.2675451315E+01+
*       0.0000000000E+00               0
GRID*               6935               0-5.616529577E+011.6933589953E+01+
*       0.0000000000E+00               0
GRID*               6936               0-5.745973542E+019.7008530843E+00+
*       0.0000000000E+00               0
GRID*               6937               0-5.966125565E+016.3081657289E+00+
*       0.0000000000E+00               0
GRID*               6938               0-6.133728635E+011.0060495808E+01+
*       0.0000000000E+00               0
GRID*               6939               0-7.140126281E+015.6224837568E-01+
*       0.0000000000E+00               0
GRID*               6940               0-7.512532983E+012.4008803372E+00+
*       0.0000000000E+00               0
GRID*               6941               0-6.204104216E+014.4819544155E+00+
*       0.0000000000E+00               0
GRID*               6942               0-6.445610310E+013.3976545626E+00+
*       0.0000000000E+00               0
GRID*               6943               0-6.828739623E+012.2899946284E+00+
*       0.0000000000E+00               0
GRID*               6944               0-6.737009970E+015.5601485189E+00+
*       0.0000000000E+00               0
GRID*               6945               0-7.878849232E+014.8133779333E+00+
*       0.0000000000E+00               0
GRID*               6946               0-7.486455531E+016.8649861808E+00+
*       0.0000000000E+00               0
GRID*               6947               0-8.294247003E+017.1370073563E+00+
*       0.0000000000E+00               0
GRID*               6948               0-8.237297464E+011.2099731378E+01+
*       0.0000000000E+00               0
GRID*               6949               0-5.770201748E+012.1252250825E+01+
*       0.0000000000E+00               0
GRID*               6950               0-5.876872524E+012.5780452464E+01+
*       0.0000000000E+00               0
GRID*               6951               0-7.020753446E+019.1488828523E+00+
*       0.0000000000E+00               0
GRID*               6952               0-7.387069695E+011.1561380448E+01+
*       0.0000000000E+00               0
GRID*               6953               0-6.637624133E+011.0256542786E+01+
*       0.0000000000E+00               0
GRID*               6954               0-6.067248784E+011.7771844036E+01+
*       0.0000000000E+00               0
GRID*               6955               0-6.417472111E+011.3649230142E+01+
*       0.0000000000E+00               0
GRID*               6956               0-6.571144282E+011.7967891014E+01+
*       0.0000000000E+00               0
GRID*               6957               0-6.904466769E+014.6320791660E+01+
*       0.0000000000E+00               0
GRID*               6958               0-7.174539749E+014.2118530163E+01+
*       0.0000000000E+00               0
GRID*               6959               0-6.402334004E+014.5182635740E+01+
*       0.0000000000E+00               0
GRID*               6960               0-6.245709188E+014.0188644539E+01+
*       0.0000000000E+00               0
GRID*               6961               0-6.576676221E+015.0294241546E+01+
*       0.0000000000E+00               0
GRID*               6962               0-6.114894166E+013.5322273452E+01+
*       0.0000000000E+00               0
GRID*               6963               0-6.599309529E+013.6342814769E+01+
*       0.0000000000E+00               0
GRID*               6964               0-6.000659300E+013.0473421851E+01+
*       0.0000000000E+00               0
GRID*               6965               0-6.344707731E+012.6783474295E+01+
*       0.0000000000E+00               0
GRID*               6966               0-8.210005575E+011.6081473999E+01+
*       0.0000000000E+00               0
GRID*               6967               0-8.096856314E+012.0946931405E+01+
*       0.0000000000E+00               0
GRID*               6968               0-7.825479890E+011.3259226398E+01+
*       0.0000000000E+00               0
GRID*               6969               0-7.359777806E+011.5543123070E+01+
*       0.0000000000E+00               0
GRID*               6970               0-6.703766027E+012.2931470374E+01+
*       0.0000000000E+00               0
GRID*               6971               0-6.827552803E+012.7624439761E+01+
*       0.0000000000E+00               0
GRID*               6972               0-7.053989354E+011.8808856480E+01+
*       0.0000000000E+00               0
GRID*               6973               0-7.492399550E+012.0506702430E+01+
*       0.0000000000E+00               0
GRID*               6974               0-7.054753480E+013.7178210523E+01+
*       0.0000000000E+00               0
GRID*               6975               0-6.923938458E+013.2311839437E+01+
*       0.0000000000E+00               0
GRID*               6976               0-7.499168678E+013.8087554831E+01+
*       0.0000000000E+00               0
GRID*               6977               0-7.719579029E+013.3604824272E+01+
*       0.0000000000E+00               0
GRID*               6978               0-7.282996754E+012.8459835516E+01+
*       0.0000000000E+00               0
GRID*               6979               0-7.887453517E+012.8900064491E+01+
*       0.0000000000E+00               0
GRID*               6980               0-7.791067862E+012.4212664815E+01+
*       0.0000000000E+00               0
GRID*               6981               0-6.260461251E+015.4161249458E+01+
*       0.0000000000E+00               0
GRID*               6982               0-3.758348610E+015.3443729456E+01+
*       0.0000000000E+00               0
GRID*               6983               0-4.037598802E+015.5425907402E+01+
*       0.0000000000E+00               0
GRID*               6984               0-3.612504514E+014.6511967028E+01+
*       0.0000000000E+00               0
GRID*               6985               0-3.673611001E+015.0860179193E+01+
*       0.0000000000E+00               0
GRID*               6986               0-3.389065396E+015.2511047802E+01+
*       0.0000000000E+00               0
GRID*               6987               0-3.981787728E+014.7444648682E+01+
*       0.0000000000E+00               0
GRID*               6988               0-5.586391198E+016.1448828126E+01+
*       0.0000000000E+00               0
GRID*               6989               0-5.122627408E+015.9810126415E+01+
*       0.0000000000E+00               0
GRID*               6990               0-5.944625638E+015.7967484909E+01+
*       0.0000000000E+00               0
GRID*               6991               0-5.758707843E+015.2962321077E+01+
*       0.0000000000E+00               0
GRID*               6992               0-4.338566139E+015.7369386898E+01+
*       0.0000000000E+00               0
GRID*               6993               0-4.343861552E+015.3736340343E+01+
*       0.0000000000E+00               0
GRID*               6994               0-4.723605738E+015.9265758070E+01+
*       0.0000000000E+00               0
GRID*               6995               0-5.043850559E+015.6224188184E+01+
*       0.0000000000E+00               0
GRID*               6996               0-5.199505226E+015.2080805098E+01+
*       0.0000000000E+00               0
GRID*               6997               0-4.800483556E+015.1536436753E+01+
*       0.0000000000E+00               0
GRID*               6998               0-4.499516219E+014.9592957257E+01+
*       0.0000000000E+00               0
GRID*               4960               03.3330291340E+011.1584023291E+01+
*       2.3333333015E+01               0
GRID*               4961               03.1914092646E+011.4570183716E+01+
*       2.3333333015E+01               0
GRID*               4962               03.5041169789E+014.1489475701E+00+
*       2.3333333013E+01               0
GRID*               4963               03.4299889363E+017.3699557202E+00+
*       2.3333333015E+01               0
GRID*               4964               03.5113580962E+01-3.483246141E+00+
*       2.3333333054E+01               0
GRID*               4965               03.5082096200E+01-1.773532443E-01+
*       2.3333333013E+01               0
GRID*               4966               03.3544149395E+01-1.094936342E+01+
*       2.3333333015E+01               0
GRID*               4967               03.3271362706E+01-7.517273541E+00+
*       2.1918654152E+01               0
GRID*               4968               03.0405984268E+01-1.790459784E+01+
*       2.3333333015E+01               0
GRID*               4969               03.1764976463E+01-1.489209422E+01+
*       2.3333333015E+01               0
GRID*               4970               02.5846201375E+01-2.402230894E+01+
*       2.3333333015E+01               0
GRID*               4971               02.7048485811E+01-2.078532611E+01+
*       2.1916972845E+01               0
GRID*               4972               02.0078043158E+01-2.901673019E+01+
*       2.3333333015E+01               0
GRID*               4973               02.2577294338E+01-2.685239379E+01+
*       2.3333333015E+01               0
GRID*               4974               01.3370913853E+01-3.265447782E+01+
*       2.3333333015E+01               0
GRID*               4975               01.6276277766E+01-3.107847513E+01+
*       2.3333333015E+01               0
GRID*               4976               06.0384838267E+00-3.476543211E+01+
*       2.3333333015E+01               0
GRID*               4977               08.9749590663E+00-3.290555721E+01+
*       2.1920266794E+01               0
GRID*               4978               0-1.576694787E+00-3.525070921E+01+
*       2.3333333015E+01               0
GRID*               4979               01.7215962643E+00-3.504036753E+01+
*       2.3333333015E+01               0
GRID*               4980               0-9.118257635E+00-3.408744743E+01+
*       2.3333333015E+01               0
GRID*               4981               0-5.667942160E+00-3.362212556E+01+
*       2.1928170359E+01               0
GRID*               4982               0-1.623235650E+01-3.133064169E+01+
*       2.3333333015E+01               0
GRID*               4983               0-1.315019826E+01-3.252490391E+01+
*       2.3333333015E+01               0
GRID*               4984               0-2.258783987E+01-2.710877967E+01+
*       2.3333333015E+01               0
GRID*               4985               0-1.983444468E+01-2.893772366E+01+
*       2.3333333015E+01               0
GRID*               4986               0-2.788694520E+01-2.161981907E+01+
*       2.3333333015E+01               0
GRID*               4987               0-2.559144277E+01-2.399748262E+01+
*       2.3333333015E+01               0
GRID*               4988               0-3.188328815E+01-1.511801529E+01+
*       2.3333333015E+01               0
GRID*               4989               0-2.928177722E+01-1.743481206E+01+
*       2.1940568265E+01               0
GRID*               4990               0-3.438772219E+01-7.910806310E+00+
*       2.3333333015E+01               0
GRID*               4991               0-3.234540247E+01-1.072830050E+01+
*       2.1941318632E+01               0
GRID*               4992               0-3.528437310E+01-3.340125862E-01+
*       2.3333333015E+01               0
GRID*               4993               0-3.489589857E+01-3.616299780E+00+
*       2.3333333015E+01               0
GRID*               4994               0-3.453146080E+017.2577521791E+00+
*       2.3333333015E+01               0
GRID*               4995               0-3.385836775E+013.8501107638E+00+
*       2.1942434785E+01               0
GRID*               4996               0-3.216380172E+011.4511658407E+01+
*       2.3333333015E+01               0
GRID*               4997               0-3.318950130E+011.1369069775E+01+
*       2.3333333015E+01               0
GRID*               4998               0-2.829174642E+012.1087333105E+01+
*       2.3333333015E+01               0
GRID*               4999               0-2.996886791E+011.8239051484E+01+
*       2.3333333015E+01               0
GRID*               5000               0-2.309771199E+012.6675682428E+01+
*       2.3333333015E+01               0
GRID*               5001               0-2.461140256E+012.3563155027E+01+
*       2.1945317579E+01               0
GRID*               5002               0-1.682318059E+013.1017391346E+01+
*       2.3333333015E+01               0
GRID*               5003               0-1.954124520E+012.9136498654E+01+
*       2.3333333015E+01               0
GRID*               5004               0-9.762642133E+003.3908528418E+01+
*       2.3333333015E+01               0
GRID*               5005               0-1.244418915E+013.1724445674E+01+
*       2.1941543892E+01               0
GRID*               5006               0-2.244756687E+003.5214480315E+01+
*       2.3333333015E+01               0
GRID*               5007               0-5.320802265E+003.3657784081E+01+
*       2.1943088759E+01               0
GRID*               5008               05.3781599021E+003.4873686208E+01+
*       2.3333333015E+01               0
GRID*               5009               02.0532494547E+003.4021979771E+01+
*       2.1937181971E+01               0
GRID*               5010               01.2748612333E+013.2902413981E+01+
*       2.3333333015E+01               0
GRID*               5011               09.5554506826E+003.3756335634E+01+
*       2.3333333015E+01               0
GRID*               5012               01.9524140063E+012.9392287848E+01+
*       2.3333333015E+01               0
GRID*               5013               01.6589001275E+013.0912779532E+01+
*       2.3333333015E+01               0
GRID*               5014               02.5385448567E+012.4508717518E+01+
*       2.3333333015E+01               0
GRID*               5015               02.2219262456E+012.5856376167E+01+
*       2.1931607517E+01               0
GRID*               5016               02.8035661095E+012.1090443421E+01+
*       2.3333333015E+01               0
GRID*               5070               02.5034159409E+01-2.362018934E+01+
*       -3.333333254E+00               0
GRID*               5071               02.2453510184E+01-2.590846595E+01+
*       -3.333333254E+00               0
GRID*               5072               02.9806736084E+01-1.720988745E+01+
*       -3.333333254E+00               0
GRID*               5073               02.7010640120E+01-1.944379909E+01+
*       -1.897122525E+00               0
GRID*               5074               03.2972182531E+01-9.872046568E+00+
*       -3.333333254E+00               0
GRID*               5075               03.1692914606E+01-1.307532960E+01+
*       -3.333333254E+00               0
GRID*               5076               03.4359986129E+01-2.002600760E+00+
*       -3.333333398E+00               0
GRID*               5077               03.3853812592E+01-5.415194619E+00+
*       -3.333333254E+00               0
GRID*               5078               03.3895507994E+015.9764461255E+00+
*       -3.333333254E+00               0
GRID*               5079               03.4189952961E+012.5397066148E+00+
*       -3.333333398E+00               0
GRID*               5080               03.1603856394E+011.3631436791E+01+
*       -3.333333254E+00               0
GRID*               5081               03.2683037939E+011.0354848422E+01+
*       -3.333333254E+00               0
GRID*               5082               02.7608861731E+012.0551663125E+01+
*       -3.333333254E+00               0
GRID*               5083               02.9414498853E+011.7612462864E+01+
*       -3.333333254E+00               0
GRID*               5084               02.2124174204E+012.6365538090E+01+
*       -3.333333254E+00               0
GRID*               5085               02.4559002009E+012.3921894471E+01+
*       -3.333333254E+00               0
GRID*               5086               01.5448109301E+013.0756728380E+01+
*       -3.333333254E+00               0
GRID*               5087               01.7862894895E+012.8082841013E+01+
*       -1.896578352E+00               0
GRID*               5088               07.9384722847E+003.3490335091E+01+
*       -3.333333254E+00               0
GRID*               5089               01.1210911628E+013.2399405921E+01+
*       -3.333333254E+00               0
GRID*               5090               01.0306268262E-033.4418324730E+01+
*       -3.333333254E+00               0
GRID*               5091               03.3534335824E+003.3102183336E+01+
*       -1.904351878E+00               0
GRID*               5092               0-7.936577464E+003.3490798478E+01+
*       -3.333333254E+00               0
GRID*               5093               0-4.522815615E+003.3984552346E+01+
*       -3.333333254E+00               0
GRID*               5094               0-1.544644777E+013.0757563201E+01+
*       -3.333333254E+00               0
GRID*               5095               0-1.223793910E+013.2025552309E+01+
*       -3.333333254E+00               0
GRID*               5096               0-2.212227493E+012.6367113975E+01+
*       -3.333333254E+00               0
GRID*               5097               0-1.929325480E+012.8340425306E+01+
*       -3.333333254E+00               0
GRID*               5098               0-2.760770155E+012.0553261407E+01+
*       -3.333333254E+00               0
GRID*               5099               0-2.530955948E+012.3126328714E+01+
*       -3.333333254E+00               0
GRID*               5100               0-3.160284074E+011.3633833864E+01+
*       -3.333333254E+00               0
GRID*               5101               0-2.905412333E+011.6172369800E+01+
*       -1.918242333E+00               0
GRID*               5102               0-3.389521542E+015.9778506596E+00+
*       -3.333333254E+00               0
GRID*               5103               0-3.199791452E+019.0360406525E+00+
*       -1.920123099E+00               0
GRID*               5104               0-3.436016344E+01-2.000220634E+00+
*       -3.333333254E+00               0
GRID*               5105               0-3.425365370E+011.4471419850E+00+
*       -3.333333254E+00               0
GRID*               5106               0-3.297265068E+01-9.870412886E+00+
*       -3.333333254E+00               0
GRID*               5107               0-3.366423460E+01-6.490385580E+00+
*       -3.333333254E+00               0
GRID*               5108               0-2.980771047E+01-1.720821836E+01+
*       -3.333333254E+00               0
GRID*               5109               0-3.031021937E+01-1.367222795E+01+
*       -1.919068262E+00               0
GRID*               5110               0-2.503562247E+01-2.361857385E+01+
*       -3.333333254E+00               0
GRID*               5111               0-2.635194018E+01-2.029071261E+01+
*       -1.913765231E+00               0
GRID*               5112               0-1.891386130E+01-2.875568824E+01+
*       -3.333333254E+00               0
GRID*               5113               0-2.161530148E+01-2.661173979E+01+
*       -3.333333254E+00               0
GRID*               5114               0-1.177233517E+01-3.234241503E+01+
*       -3.333333254E+00               0
GRID*               5115               0-1.443840013E+01-2.997026635E+01+
*       -1.907957720E+00               0
GRID*               5116               0-3.997816911E+00-3.418534987E+01+
*       -3.333333254E+00               0
GRID*               5117               0-7.374351417E+00-3.348181055E+01+
*       -3.333333254E+00               0
GRID*               5118               03.9954467308E+00-3.418562620E+01+
*       -3.333333254E+00               0
GRID*               5119               05.5587061620E-01-3.326668323E+01+
*       -1.904467683E+00               0
GRID*               5120               01.1770093323E+01-3.234326160E+01+
*       -3.333333254E+00               0
GRID*               5121               08.4369682835E+00-3.322992120E+01+
*       -3.333333254E+00               0
GRID*               5122               01.5465887907E+01-2.942460267E+01+
*       -1.925822796E+00               0
GRID*               5123               02.6842460185E+018.6656849644E+00+
*       2.8333333015E+01               0
GRID*               5124               02.5768310510E+011.1247240874E+01+
*       2.8333333015E+01               0
GRID*               5125               02.8077791985E+012.6926358632E+00+
*       2.8333333013E+01               0
GRID*               5126               02.7583740610E+015.4446768143E+00+
*       2.8333333013E+01               0
GRID*               5127               02.8000160336E+01-3.406641360E+00+
*       2.8333333054E+01               0
GRID*               5128               02.8109276746E+01-6.132570334E-01+
*       2.8333333054E+01               0
GRID*               5129               02.6613468311E+01-9.345459512E+00+
*       2.8333333015E+01               0
GRID*               5130               02.7867518274E+01-6.769784978E+00+
*       2.9128835591E+01               0
GRID*               5131               02.3982874668E+01-1.484710589E+01+
*       2.8333333015E+01               0
GRID*               5132               02.5254476115E+01-1.235796313E+01+
*       2.8333333015E+01               0
GRID*               5133               02.0230513709E+01-1.965554018E+01+
*       2.8333333015E+01               0
GRID*               5134               02.2008008337E+01-1.749726132E+01+
*       2.8333333015E+01               0
GRID*               5135               01.5532253628E+01-2.354495890E+01+
*       2.8333333015E+01               0
GRID*               5136               01.8095384357E+01-2.225276966E+01+
*       2.9126490245E+01               0
GRID*               5137               01.0106922342E+01-2.633371737E+01+
*       2.8333333015E+01               0
GRID*               5138               01.2626889714E+01-2.512096159E+01+
*       2.8333333015E+01               0
GRID*               5139               04.2088844888E+00-2.789082636E+01+
*       2.8333333015E+01               0
GRID*               5140               06.9300912056E+00-2.724843707E+01+
*       2.8333333015E+01               0
GRID*               5141               0-1.885663444E+00-2.814350808E+01+
*       2.8333333015E+01               0
GRID*               5142               09.1059343720E-01-2.810116805E+01+
*       2.8333333015E+01               0
GRID*               5143               0-7.892089960E+00-2.708004462E+01+
*       2.8333333015E+01               0
GRID*               5144               0-5.153049051E+00-2.763972322E+01+
*       2.8333333015E+01               0
GRID*               5145               0-1.352854652E+01-2.475060024E+01+
*       2.8333333015E+01               0
GRID*               5146               0-1.117947852E+01-2.640661333E+01+
*       2.9130877542E+01               0
GRID*               5147               0-1.853271256E+01-2.126390956E+01+
*       2.8333333015E+01               0
GRID*               5148               0-1.628194171E+01-2.292165625E+01+
*       2.8333333015E+01               0
GRID*               5149               0-2.267046989E+01-1.678283842E+01+
*       2.8333333015E+01               0
GRID*               5150               0-2.082821499E+01-1.888624602E+01+
*       2.8333333015E+01               0
GRID*               5151               0-2.574836986E+01-1.151683276E+01+
*       2.8333333015E+01               0
GRID*               5152               0-2.487917647E+01-1.425402141E+01+
*       2.9132225997E+01               0
GRID*               5153               0-2.762240164E+01-5.711124065E+00+
*       2.8333333015E+01               0
GRID*               5154               0-2.735964870E+01-8.566544463E+00+
*       2.9135201169E+01               0
GRID*               5155               0-2.820433625E+013.5980065799E-01+
*       2.8333333015E+01               0
GRID*               5156               0-2.801087617E+01-2.428836871E+00+
*       2.8333333015E+01               0
GRID*               5157               0-2.746792045E+016.4131328345E+00+
*       2.8333333015E+01               0
GRID*               5158               0-2.787824229E+013.6485517949E+00+
*       2.8333333015E+01               0
GRID*               5159               0-2.544693192E+011.2168353721E+01+
*       2.8333333015E+01               0
GRID*               5160               0-2.696237265E+019.7387702643E+00+
*       2.9136461012E+01               0
GRID*               5161               0-2.223651930E+011.7353739872E+01+
*       2.8333333015E+01               0
GRID*               5162               0-2.376981043E+011.5016635342E+01+
*       2.8333333015E+01               0
GRID*               5163               0-1.798638111E+012.1727994690E+01+
*       2.8333333015E+01               0
GRID*               5164               0-1.998651862E+011.9774729015E+01+
*       2.8333333015E+01               0
GRID*               5165               0-1.289463946E+012.5086683656E+01+
*       2.8333333015E+01               0
GRID*               5166               0-1.557225180E+012.4071302487E+01+
*       2.9134763491E+01               0
GRID*               5167               0-7.200094548E+002.7272225707E+01+
*       2.8333333015E+01               0
GRID*               5168               0-9.835445199E+002.6339416491E+01+
*       2.8333333015E+01               0
GRID*               5169               0-1.167350875E+002.8182452090E+01+
*       2.8333333015E+01               0
GRID*               5170               0-4.017476045E+002.8386593741E+01+
*       2.9135173911E+01               0
GRID*               5171               04.9177251226E+002.7774614774E+01+
*       2.8333333015E+01               0
GRID*               5172               02.1343279584E+002.8034906948E+01+
*       2.8333333015E+01               0
GRID*               5173               01.0772708697E+012.6068420056E+01+
*       2.8333333015E+01               0
GRID*               5174               08.1108867732E+002.6920693121E+01+
*       2.8333333015E+01               0
GRID*               5175               01.6125065281E+012.3142957378E+01+
*       2.8333333015E+01               0
GRID*               5176               01.3983274535E+012.5030457864E+01+
*       2.9133780097E+01               0
GRID*               5177               02.0722920373E+011.9135716696E+01+
*       2.8333333015E+01               0
GRID*               5178               01.8664783151E+012.1026907931E+01+
*       2.8333333015E+01               0
GRID*               5179               02.3201577543E+011.6854299054E+01+
*       2.9129336247E+01               0
GRID*               5017               02.0404266431E+01-1.822285686E+01+
*       -8.333333254E+00               0
GRID*               5018               01.8628658049E+01-2.056890069E+01+
*       -9.175282063E+00               0
GRID*               5019               02.4057014136E+01-1.302553568E+01+
*       -8.333333254E+00               0
GRID*               5020               02.2388164215E+01-1.540041509E+01+
*       -8.333333254E+00               0
GRID*               5021               02.6412503899E+01-7.126372581E+00+
*       -8.333333254E+00               0
GRID*               5022               02.5889119919E+01-1.003020671E+01+
*       -9.167167213E+00               0
GRID*               5023               02.7344073404E+01-8.411801234E-01+
*       -8.333333398E+00               0
GRID*               5024               02.6918677437E+01-3.713778722E+00+
*       -8.333333398E+00               0
GRID*               5025               02.6801073841E+015.4871552523E+00+
*       -8.333333254E+00               0
GRID*               5026               02.7643037114E+012.6458054221E+00+
*       -9.163641487E+00               0
GRID*               5027               02.4813510549E+011.1519388272E+01+
*       -8.333333254E+00               0
GRID*               5028               02.6293228860E+018.9498480382E+00+
*       -9.159555416E+00               0
GRID*               5029               02.1488149522E+011.6931188898E+01+
*       -8.333333254E+00               0
GRID*               5030               02.3007873427E+011.4458588533E+01+
*       -8.333333254E+00               0
GRID*               5031               01.7004856827E+012.1429901494E+01+
*       -8.333333254E+00               0
GRID*               5032               01.9483324022E+011.9788404572E+01+
*       -9.163075426E+00               0
GRID*               5033               01.1604601408E+012.4773756792E+01+
*       -8.333333254E+00               0
GRID*               5034               01.4072059246E+012.3246159690E+01+
*       -8.333333254E+00               0
GRID*               5035               05.5786249053E+002.6782186330E+01+
*       -8.333333254E+00               0
GRID*               5036               08.5330158908E+002.6424124471E+01+
*       -9.164863388E+00               0
GRID*               5037               0-7.474009300E-012.7346808787E+01+
*       -8.333333254E+00               0
GRID*               5038               02.2116950474E+002.7679214511E+01+
*       -9.164614780E+00               0
GRID*               5039               0-7.034101428E+002.6437245744E+01+
*       -8.333333254E+00               0
GRID*               5040               0-4.161162779E+002.6853054920E+01+
*       -8.333333254E+00               0
GRID*               5041               0-1.294154359E+012.4102298679E+01+
*       -8.333333254E+00               0
GRID*               5042               0-1.044258581E+012.5726516477E+01+
*       -9.166207972E+00               0
GRID*               5043               0-1.815091898E+012.0468278595E+01+
*       -8.333333254E+00               0
GRID*               5044               0-1.577056372E+012.2128987349E+01+
*       -8.333333254E+00               0
GRID*               5045               0-2.238275563E+011.5729540308E+01+
*       -8.333333254E+00               0
GRID*               5046               0-2.087266004E+011.8294565698E+01+
*       -9.173193950E+00               0
GRID*               5047               0-2.540655854E+011.0144623707E+01+
*       -8.333333254E+00               0
GRID*               5048               0-2.453561850E+011.2984267174E+01+
*       -9.170141648E+00               0
GRID*               5049               0-2.706154578E+014.0098865398E+00+
*       -8.333333254E+00               0
GRID*               5050               0-2.630554790E+016.8135287293E+00+
*       -8.333333254E+00               0
GRID*               5051               0-2.725690271E+01-2.338277170E+00+
*       -8.333333254E+00               0
GRID*               5052               0-2.716805552E+015.6252392044E-01+
*       -8.333333254E+00               0
GRID*               5053               0-2.598303917E+01-8.560805076E+00+
*       -8.333333254E+00               0
GRID*               5054               0-2.713894492E+01-5.818297696E+00+
*       -9.172795330E+00               0
GRID*               5055               0-2.330885638E+01-1.432143707E+01+
*       -8.333333254E+00               0
GRID*               5056               0-2.453104637E+01-1.168933007E+01+
*       -8.333333254E+00               0
GRID*               5057               0-1.937756709E+01-1.931104850E+01+
*       -8.333333254E+00               0
GRID*               5058               0-2.117376820E+01-1.703171136E+01+
*       -8.333333254E+00               0
GRID*               5059               0-1.440327433E+01-2.325838241E+01+
*       -8.333333254E+00               0
GRID*               5060               0-1.667612692E+01-2.145499695E+01+
*       -8.333333254E+00               0
GRID*               5061               0-8.650419774E+00-2.595335268E+01+
*       -8.333333254E+00               0
GRID*               5062               0-1.127889653E+01-2.472217501E+01+
*       -8.333333254E+00               0
GRID*               5063               0-2.432993576E+00-2.724859174E+01+
*       -8.333333254E+00               0
GRID*               5064               0-5.390959844E+00-2.722605530E+01+
*       -9.173215258E+00               0
GRID*               5065               03.9168617070E+00-2.707516712E+01+
*       -8.333333254E+00               0
GRID*               5066               01.0374650286E+00-2.773832654E+01+
*       -9.171589298E+00               0
GRID*               5067               01.0055186530E+01-2.544208035E+01+
*       -8.333333254E+00               0
GRID*               5068               07.2499867468E+00-2.618850752E+01+
*       -8.333333254E+00               0
GRID*               5069               01.3095054014E+01-2.381007275E+01+
*       -8.333333254E+00               0
GRID*               5506               01.3858155930E+01-5.739927942E+00+
*       2.4285741086E+01               0
GRID*               5507               01.0606510208E+01-1.060663800E+01+
*       2.4285705025E+01               0
GRID*               5508               05.7403509332E+00-1.385801697E+01+
*       2.4285730033E+01               0
GRID*               5509               03.9249188586E-04-1.499993492E+01+
*       2.4285749548E+01               0
GRID*               5510               0-5.740173941E+00-1.385815573E+01+
*       2.4285720688E+01               0
GRID*               5511               0-1.060620598E+01-1.060681883E+01+
*       2.4285753646E+01               0
GRID*               5512               0-1.385818314E+01-5.740250983E+00+
*       2.4285715070E+01               0
GRID*               5513               0-1.499984169E+01-3.457610162E-04+
*       2.4285746244E+01               0
GRID*               5514               0-1.385813351E+015.7403412363E+00+
*       2.4285703965E+01               0
GRID*               5515               0-1.060665402E+011.0606341737E+01+
*       2.4285735527E+01               0
GRID*               5516               0-5.740462379E+001.3858061997E+01+
*       2.4285735977E+01               0
GRID*               5517               0-1.033353390E-041.4999903747E+01+
*       2.4285725046E+01               0
GRID*               5518               05.7398092458E+001.3858271883E+01+
*       2.4285753906E+01               0
GRID*               5519               01.0606562383E+011.0606594841E+01+
*       2.4285717270E+01               0
GRID*               5520               01.3857904541E+015.7405628012E+00+
*       2.4285750751E+01               0
GRID*               5521               01.3858352640E+01-5.739431169E+00+
*       1.8571504835E+01               0
GRID*               5522               01.0606312625E+01-1.060680144E+01+
*       1.8571395570E+01               0
GRID*               5523               05.7406923989E+00-1.385785628E+01+
*       1.8571479264E+01               0
GRID*               5524               0-3.167411267E-04-1.499989033E+01+
*       1.8571398032E+01               0
GRID*               5525               0-5.740012925E+00-1.385820806E+01+
*       1.8571450651E+01               0
GRID*               5526               0-1.060602204E+01-1.060701471E+01+
*       1.8571492809E+01               0
GRID*               5527               0-1.385817242E+01-5.740270474E+00+
*       1.8571431415E+01               0
GRID*               5528               0-1.499984169E+01-8.909702057E-04+
*       1.8571511028E+01               0
GRID*               5529               0-1.385812857E+015.7403502274E+00+
*       1.8571417300E+01               0
GRID*               5530               0-1.060697629E+011.0605998566E+01+
*       1.8571493400E+01               0
GRID*               5531               0-5.739764640E+001.3858288741E+01+
*       1.8571382333E+01               0
GRID*               5532               0-3.747691652E-041.4999886685E+01+
*       1.8571464514E+01               0
GRID*               5533               05.7399389044E+001.3858210866E+01+
*       1.8571454947E+01               0
GRID*               5534               01.0606499029E+011.0606647249E+01+
*       1.8571439169E+01               0
GRID*               5535               01.3857730669E+015.7410018983E+00+
*       1.8571508752E+01               0
GRID*               5536               01.3858415892E+01-5.739271432E+00+
*       1.2857235017E+01               0
GRID*               5537               01.0606338685E+01-1.060677989E+01+
*       1.2857112988E+01               0
GRID*               5538               05.7410036100E+00-1.385770982E+01+
*       1.2857225411E+01               0
GRID*               5539               0-7.866872684E-04-1.499986079E+01+
*       1.2857068716E+01               0
GRID*               5540               0-5.739818453E+00-1.385827125E+01+
*       1.2857183866E+01               0
GRID*               5541               0-1.060689389E+01-1.060608632E+01+
*       1.2857089176E+01               0
GRID*               5542               0-1.385815753E+01-5.740297559E+00+
*       1.2857148563E+01               0
GRID*               5543               0-1.499984169E+01-7.370148790E-04+
*       1.2857211091E+01               0
GRID*               5544               0-1.385814139E+015.7403269145E+00+
*       1.2857134049E+01               0
GRID*               5545               0-1.060719419E+011.0605766539E+01+
*       1.2857237155E+01               0
GRID*               5546               0-5.739677486E+001.3858317063E+01+
*       1.2857088130E+01               0
GRID*               5547               0-6.679521111E-041.4999868255E+01+
*       1.2857205992E+01               0
GRID*               5548               05.7409568075E+001.3857731849E+01+
*       1.2857065078E+01               0
GRID*               5549               01.0606416148E+011.0606715809E+01+
*       1.2857163416E+01               0
GRID*               5550               01.3858003251E+015.7403135173E+00+
*       1.2857154475E+01               0
GRID*               5551               01.3858003251E+01-5.740313517E+00+
*       7.1428455247E+00               0
GRID*               5552               01.0606416148E+01-1.060671581E+01+
*       7.1428365841E+00               0
GRID*               5553               05.7409568075E+00-1.385773185E+01+
*       7.1429349223E+00               0
GRID*               5554               0-6.679521111E-04-1.499986825E+01+
*       7.1427940085E+00               0
GRID*               5555               0-5.739677486E+00-1.385831706E+01+
*       7.1429118700E+00               0
GRID*               5556               0-1.060719419E+01-1.060576654E+01+
*       7.1427628446E+00               0
GRID*               5557               0-1.385814139E+01-5.740326914E+00+
*       7.1428659506E+00               0
GRID*               5558               0-1.499984169E+017.3701487844E-04+
*       7.1427889093E+00               0
GRID*               5559               0-1.385815753E+015.7402975586E+00+
*       7.1428514370E+00               0
GRID*               5560               0-1.060689389E+011.0606086317E+01+
*       7.1429108242E+00               0
GRID*               5561               0-5.739818453E+001.3858271254E+01+
*       7.1428161344E+00               0
GRID*               5562               0-7.866872685E-041.4999860791E+01+
*       7.1429312841E+00               0
GRID*               5563               05.7410036100E+001.3857709824E+01+
*       7.1427745886E+00               0
GRID*               5564               01.0606338685E+011.0606779887E+01+
*       7.1428870117E+00               0
GRID*               5565               01.3858415892E+015.7392714315E+00+
*       7.1427649833E+00               0
GRID*               5566               01.3857730669E+01-5.741001898E+00+
*       1.4284912482E+00               0
GRID*               5567               01.0606499029E+01-1.060664725E+01+
*       1.4285608308E+00               0
GRID*               5568               05.7399389044E+00-1.385821087E+01+
*       1.4285450533E+00               0
GRID*               5569               0-3.747691651E-04-1.499988668E+01+
*       1.4285354862E+00               0
GRID*               5570               0-5.739764640E+00-1.385828874E+01+
*       1.4286176671E+00               0
GRID*               5571               0-1.060697629E+01-1.060599857E+01+
*       1.4285065999E+00               0
GRID*               5572               0-1.385812857E+01-5.740350227E+00+
*       1.4285826997E+00               0
GRID*               5573               0-1.499984169E+018.9097020531E-04+
*       1.4284889716E+00               0
GRID*               5574               0-1.385817242E+015.7402704739E+00+
*       1.4285685845E+00               0
GRID*               5575               0-1.060602204E+011.0607014707E+01+
*       1.4285071907E+00               0
GRID*               5576               0-5.740012925E+001.3858208056E+01+
*       1.4285493493E+00               0
GRID*               5577               0-3.167411268E-041.4999890332E+01+
*       1.4286019678E+00               0
GRID*               5578               05.7406923989E+001.3857856278E+01+
*       1.4285207360E+00               0
GRID*               5579               01.0606312625E+011.0606801444E+01+
*       1.4286044304E+00               0
GRID*               5580               01.3858352640E+015.7394311692E+00+
*       1.4284951652E+00               0
GRID*               5581               01.3857904541E+01-5.740562801E+00+
*       -4.285750751E+00               0
GRID*               5582               01.0606562383E+01-1.060659484E+01+
*       -4.285717270E+00               0
GRID*               5583               05.7398092458E+00-1.385827188E+01+
*       -4.285753906E+00               0
GRID*               5584               0-1.033353389E-04-1.499990375E+01+
*       -4.285725046E+00               0
GRID*               5585               0-5.740462379E+00-1.385806200E+01+
*       -4.285735977E+00               0
GRID*               5586               0-1.060665402E+01-1.060634174E+01+
*       -4.285735527E+00               0
GRID*               5587               0-1.385813351E+01-5.740341236E+00+
*       -4.285703965E+00               0
GRID*               5588               0-1.499984169E+013.4576101608E-04+
*       -4.285746244E+00               0
GRID*               5589               0-1.385818314E+015.7402509831E+00+
*       -4.285715070E+00               0
GRID*               5590               0-1.060620598E+011.0606818833E+01+
*       -4.285753646E+00               0
GRID*               5591               0-5.740173941E+001.3858155731E+01+
*       -4.285720688E+00               0
GRID*               5592               03.9249188582E-041.4999934915E+01+
*       -4.285749548E+00               0
GRID*               5593               05.7403509332E+001.3858016969E+01+
*       -4.285730033E+00               0
GRID*               5594               01.0606510208E+011.0606638001E+01+
*       -4.285705025E+00               0
GRID*               5595               01.3858155930E+015.7399279415E+00+
*       -4.285741086E+00               0
GRID*               5596               01.3858255412E+01-5.739676709E+00+
*       2.1428623245E+01               0
GRID*               5597               01.2472252085E+01-8.333047485E+00+
*       1.8571477352E+01               0
GRID*               5598               01.2472319504E+01-8.332954671E+00+
*       2.1428630838E+01               0
GRID*               5599               01.0606356258E+01-1.060676535E+01+
*       2.1428543669E+01               0
GRID*               5600               01.2472195897E+01-8.333124839E+00+
*       2.4285754228E+01               0
GRID*               5601               08.3335889346E+00-1.247199058E+01+
*       1.8571434752E+01               0
GRID*               5602               08.3335681105E+00-1.247200781E+01+
*       2.1428575106E+01               0
GRID*               5603               05.7405104470E+00-1.385794190E+01+
*       2.1428603498E+01               0
GRID*               5604               08.3335518239E+00-1.247202128E+01+
*       2.4285716006E+01               0
GRID*               5605               02.9272037125E+00-1.471145754E+01+
*       1.8571511216E+01               0
GRID*               5606               02.9269878272E+00-1.471149871E+01+
*       2.1428633715E+01               0
GRID*               5607               03.0333200731E-04-1.499992931E+01+
*       2.1428598415E+01               0
GRID*               5608               02.9266912904E+00-1.471155527E+01+
*       2.4285748618E+01               0
GRID*               5609               0-2.926384458E+00-1.471176726E+01+
*       1.8571425383E+01               0
GRID*               5610               0-2.926387549E+00-1.471176626E+01+
*       2.1428567939E+01               0
GRID*               5611               0-5.740101805E+00-1.385817917E+01+
*       2.1428584855E+01               0
GRID*               5612               0-2.926388366E+00-1.471176599E+01+
*       2.4285710717E+01               0
GRID*               5613               0-8.332829103E+00-1.247232882E+01+
*       1.8571499586E+01               0
GRID*               5614               0-8.333046464E+00-1.247219086E+01+
*       2.1428618607E+01               0
GRID*               5615               0-1.060603115E+01-1.060700500E+01+
*       2.1428634435E+01               0
GRID*               5616               0-8.333257624E+00-1.247205684E+01+
*       2.4285738309E+01               0
GRID*               5617               0-1.247221963E+01-8.333140987E+00+
*       1.8571386653E+01               0
GRID*               5618               0-1.247214927E+01-8.333268938E+00+
*       2.1428543030E+01               0
GRID*               5619               0-1.385817846E+01-5.740259489E+00+
*       2.1428573112E+01               0
GRID*               5620               0-1.247195898E+01-8.333615022E+00+
*       2.4285722454E+01               0
GRID*               5621               0-1.471156388E+01-2.926775974E+00+
*       1.8571471850E+01               0
GRID*               5622               0-1.471160744E+01-2.926606278E+00+
*       2.1428598483E+01               0
GRID*               5623               0-1.499984169E+01-6.432142376E-04+
*       2.1428630932E+01               0
GRID*               5624               0-1.471164474E+01-2.926460986E+00+
*       2.4285727452E+01               0
GRID*               5625               0-1.471166705E+012.9263741087E+00+
*       1.8571423682E+01               0
GRID*               5626               0-1.471179446E+012.9258778113E+00+
*       2.1428613976E+01               0
GRID*               5627               0-1.385812663E+015.7403537481E+00+
*       2.1428559785E+01               0
GRID*               5628               0-1.471178284E+012.9259230644E+00+
*       2.4285752498E+01               0
GRID*               5629               0-1.247208450E+018.3333867434E+00+
*       1.8571444521E+01               0
GRID*               5630               0-1.247205157E+018.3334466383E+00+
*       2.1428581050E+01               0
GRID*               5631               0-1.060680951E+011.0606176165E+01+
*       2.1428613700E+01               0
GRID*               5632               0-1.247202520E+018.3334945865E+00+
*       2.4285718841E+01               0
GRID*               5633               0-8.334154361E+001.2471487696E+01+
*       1.8571502890E+01               0
GRID*               5634               0-8.334063758E+001.2471545201E+01+
*       2.1428635812E+01               0
GRID*               5635               0-5.740044201E+001.3858197892E+01+
*       2.1428552407E+01               0
GRID*               5636               0-8.333824518E+001.2471697044E+01+
*       2.4285752434E+01               0
GRID*               5637               0-2.926359258E+001.4711775453E+01+
*       1.8571429307E+01               0
GRID*               5638               0-2.926356155E+001.4711776462E+01+
*       2.1428571863E+01               0
GRID*               5639               0-2.271684158E-041.4999895963E+01+
*       2.1428593679E+01               0
GRID*               5640               0-2.926353774E+001.4711777235E+01+
*       2.4285714488E+01               0
GRID*               5641               02.9254757887E+001.4711787071E+01+
*       1.8571508752E+01               0
GRID*               5642               02.9257327760E+001.4711738062E+01+
*       2.1428627378E+01               0
GRID*               5643               05.7396797422E+001.3858332826E+01+
*       2.1428624313E+01               0
GRID*               5644               02.9260141151E+001.4711684408E+01+
*       2.4285743715E+01               0
GRID*               5645               08.3337204378E+001.2471881802E+01+
*       1.8571406587E+01               0
GRID*               5646               08.3337117134E+001.2471889019E+01+
*       2.1428550492E+01               0
GRID*               5647               01.0606534407E+011.0606617983E+01+
*       2.1428577775E+01               0
GRID*               5648               08.3336561149E+001.2471935011E+01+
*       2.4285700029E+01               0
GRID*               5649               01.2471574444E+018.3339803815E+00+
*       1.8571486566E+01               0
GRID*               5650               01.2471706296E+018.3337988636E+00+
*       2.1428608655E+01               0
GRID*               5651               01.3857794858E+015.7408397947E+00+
*       2.1428635474E+01               0
GRID*               5652               01.2471825161E+018.3336352238E+00+
*       2.4285732786E+01               0
GRID*               5653               01.3858418136E+01-5.739265765E+00+
*       1.5714378443E+01               0
GRID*               5654               01.2471497908E+01-8.334085746E+00+
*       1.2857072820E+01               0
GRID*               5655               01.2471842878E+01-8.333610833E+00+
*       1.5714270025E+01               0
GRID*               5656               01.0606314383E+01-1.060679999E+01+
*       1.5714252924E+01               0
GRID*               5657               08.3336390677E+00-1.247194911E+01+
*       1.2857155062E+01               0
GRID*               5658               08.3336130478E+00-1.247197064E+01+
*       1.5714294792E+01               0
GRID*               5659               05.7408682497E+00-1.385777352E+01+
*       1.5714354409E+01               0
GRID*               5660               02.9268027594E+00-1.471153401E+01+
*       1.2857187729E+01               0
GRID*               5661               02.9271990542E+00-1.471145843E+01+
*       1.5714367931E+01               0
GRID*               5662               0-6.716298861E-04-1.499986802E+01+
*       1.5714222250E+01               0
GRID*               5663               0-2.926376010E+00-1.471177001E+01+
*       1.2857140491E+01               0
GRID*               5664               0-2.926380434E+00-1.471176857E+01+
*       1.5714282918E+01               0
GRID*               5665               0-5.739915349E+00-1.385823977E+01+
*       1.5714317292E+01               0
GRID*               5666               0-8.332606705E+00-1.247246997E+01+
*       1.2857238259E+01               0
GRID*               5667               0-8.332660275E+00-1.247243597E+01+
*       1.5714375242E+01               0
GRID*               5668               0-1.060634289E+01-1.060667305E+01+
*       1.5714306556E+01               0
GRID*               5669               0-1.247222202E+01-8.333136629E+00+
*       1.2857100479E+01               0
GRID*               5670               0-1.247223470E+01-8.333113570E+00+
*       1.5714240900E+01               0
GRID*               5671               0-1.385816533E+01-5.740283369E+00+
*       1.5714289921E+01               0
GRID*               5672               0-1.471148284E+01-2.927091625E+00+
*       1.2857216320E+01               0
GRID*               5673               0-1.471151998E+01-2.926946977E+00+
*       1.5714345344E+01               0
GRID*               5674               0-1.499984169E+01-9.705551577E-04+
*       1.5714375557E+01               0
GRID*               5675               0-1.471146900E+012.9271455582E+00+
*       1.2857064229E+01               0
GRID*               5676               0-1.471152524E+012.9269264809E+00+
*       1.5714228025E+01               0
GRID*               5677               0-1.385813412E+015.7403401264E+00+
*       1.5714275511E+01               0
GRID*               5678               0-1.247215926E+018.3332507754E+00+
*       1.2857173174E+01               0
GRID*               5679               0-1.247212140E+018.3333196402E+00+
*       1.5714308755E+01               0
GRID*               5680               0-1.060711889E+011.0605846716E+01+
*       1.5714369829E+01               0
GRID*               5681               0-8.333232166E+001.2472073002E+01+
*       1.2857116045E+01               0
GRID*               5682               0-8.333925447E+001.2471632985E+01+
*       1.5714334929E+01               0
GRID*               5683               0-5.739673417E+001.3858318386E+01+
*       1.5714230593E+01               0
GRID*               5684               0-2.926367073E+001.4711772914E+01+
*       1.2857144354E+01               0
GRID*               5685               0-2.926362945E+001.4711774255E+01+
*       1.5714286809E+01               0
GRID*               5686               0-5.286330905E-041.4999877012E+01+
*       1.5714335928E+01               0
GRID*               5687               02.9254406997E+001.4711793763E+01+
*       1.2857226362E+01               0
GRID*               5688               02.9253392525E+001.4711813109E+01+
*       1.5714378773E+01               0
GRID*               5689               05.7406122727E+001.3857893984E+01+
*       1.5714243187E+01               0
GRID*               5690               08.3336899517E+001.2471907020E+01+
*       1.2857124537E+01               0
GRID*               5691               08.3337098985E+001.2471890520E+01+
*       1.5714264996E+01               0
GRID*               5692               01.0606458689E+011.0606680618E+01+
*       1.5714301160E+01               0
GRID*               5693               01.2471372756E+018.3342580407E+00+
*       1.2857232617E+01               0
GRID*               5694               01.2471453585E+018.3341467654E+00+
*       1.5714362745E+01               0
GRID*               5695               01.3857774623E+015.7408908964E+00+
*       1.5714354833E+01               0
GRID*               5696               01.3858298703E+01-5.739567381E+00+
*       1.0000062685E+01               0
GRID*               5697               01.2471372756E+01-8.334258041E+00+
*       7.1427673826E+00               0
GRID*               5698               01.2471369664E+01-8.334262298E+00+
*       9.9999097563E+00               0
GRID*               5699               01.0606374710E+01-1.060675009E+01+
*       9.9999744611E+00               0
GRID*               5700               08.3336899517E+00-1.247190702E+01+
*       7.1428754634E+00               0
GRID*               5701               08.3336653810E+00-1.247192735E+01+
*       1.0000015367E+01               0
GRID*               5702               05.7410540631E+00-1.385768608E+01+
*       1.0000087725E+01               0
GRID*               5703               02.9254406997E+00-1.471179376E+01+
*       7.1427736377E+00               0
GRID*               5704               02.9259344049E+00-1.471169961E+01+
*       9.9999630252E+00               0
GRID*               5705               0-7.662548584E-04-1.499986208E+01+
*       9.9999277503E+00               0
GRID*               5706               0-2.926367073E+00-1.471177291E+01+
*       7.1428556464E+00               0
GRID*               5707               0-2.926371486E+00-1.471177148E+01+
*       9.9999980741E+00               0
GRID*               5708               0-5.739733889E+00-1.385829873E+01+
*       1.0000049239E+01               0
GRID*               5709               0-8.333232166E+00-1.247207300E+01+
*       7.1428839553E+00               0
GRID*               5710               0-8.332755677E+00-1.247237542E+01+
*       1.0000079065E+01               0
GRID*               5711               0-1.060714594E+01-1.060581791E+01+
*       9.9999122274E+00               0
GRID*               5712               0-1.247215926E+01-8.333250775E+00+
*       7.1428268260E+00               0
GRID*               5713               0-1.247219443E+01-8.333186810E+00+
*       9.9999629242E+00               0
GRID*               5714               0-1.385814939E+01-5.740312352E+00+
*       1.0000007269E+01               0
GRID*               5715               0-1.471146900E+01-2.927145558E+00+
*       7.1429357712E+00               0
GRID*               5716               0-1.471146158E+01-2.927174430E+00+
*       1.0000081384E+01               0
GRID*               5717               0-1.499984169E+01-3.445710003E-13+
*       1.0000000000E+01               0
GRID*               5718               0-1.471148284E+012.9270916250E+00+
*       7.1427836801E+00               0
GRID*               5719               0-1.471146158E+012.9271744301E+00+
*       9.9999186164E+00               0
GRID*               5720               0-1.385814939E+015.7403123521E+00+
*       9.9999927310E+00               0
GRID*               5721               0-1.247222202E+018.3331366287E+00+
*       7.1428995211E+00               0
GRID*               5722               0-1.247219443E+018.3331868095E+00+
*       1.0000037076E+01               0
GRID*               5723               0-1.060714594E+011.0605817913E+01+
*       1.0000087773E+01               0
GRID*               5724               0-8.332606705E+001.2472469975E+01+
*       7.1427617406E+00               0
GRID*               5725               0-8.332755677E+001.2472375424E+01+
*       9.9999209347E+00               0
GRID*               5726               0-5.739733889E+001.3858298734E+01+
*       9.9999507615E+00               0
GRID*               5727               0-2.926376010E+001.4711770009E+01+
*       7.1428595091E+00               0
GRID*               5728               0-2.926371486E+001.4711771480E+01+
*       1.0000001926E+01               0
GRID*               5729               0-7.662548585E-041.4999862075E+01+
*       1.0000072250E+01               0
GRID*               5730               02.9268027594E+001.4711534009E+01+
*       7.1428122712E+00               0
GRID*               5731               02.9259344049E+001.4711699610E+01+
*       1.0000036975E+01               0
GRID*               5732               05.7410540631E+001.3857686081E+01+
*       9.9999122750E+00               0
GRID*               5733               08.3336390677E+001.2471949112E+01+
*       7.1428449378E+00               0
GRID*               5734               08.3336653810E+001.2471927346E+01+
*       9.9999846325E+00               0
GRID*               5735               01.0606374710E+011.0606750086E+01+
*       1.0000025539E+01               0
GRID*               5736               01.2471497908E+018.3340857463E+00+
*       7.1429271801E+00               0
GRID*               5737               01.2471369664E+018.3342622979E+00+
*       1.0000090244E+01               0
GRID*               5738               01.3858298703E+015.7395673809E+00+
*       9.9999373153E+00               0
GRID*               5739               01.3857774623E+01-5.740890896E+00+
*       4.2856451669E+00               0
GRID*               5740               01.2471574444E+01-8.333980382E+00+
*       1.4285134337E+00               0
GRID*               5741               01.2471453585E+01-8.334146765E+00+
*       4.2856372550E+00               0
GRID*               5742               01.0606458689E+01-1.060668062E+01+
*       4.2856988398E+00               0
GRID*               5743               08.3337204378E+00-1.247188180E+01+
*       1.4285934133E+00               0
GRID*               5744               08.3337098985E+00-1.247189052E+01+
*       4.2857350036E+00               0
GRID*               5745               05.7406122727E+00-1.385789398E+01+
*       4.2857568133E+00               0
GRID*               5746               02.9254757887E+00-1.471178707E+01+
*       1.4284912482E+00               0
GRID*               5747               02.9253392525E+00-1.471181311E+01+
*       4.2856212266E+00               0
GRID*               5748               0-5.286330905E-04-1.499987701E+01+
*       4.2856640721E+00               0
GRID*               5749               0-2.926359258E+00-1.471177545E+01+
*       1.4285706926E+00               0
GRID*               5750               0-2.926362945E+00-1.471177426E+01+
*       4.2857131909E+00               0
GRID*               5751               0-5.739673417E+00-1.385831839E+01+
*       4.2857694068E+00               0
GRID*               5752               0-8.334154361E+00-1.247148770E+01+
*       1.4284971103E+00               0
GRID*               5753               0-8.333925447E+00-1.247163298E+01+
*       4.2856650713E+00               0
GRID*               5754               0-1.060711889E+01-1.060584672E+01+
*       4.2856301706E+00               0
GRID*               5755               0-1.247208450E+01-8.333386743E+00+
*       1.4285554787E+00               0
GRID*               5756               0-1.247212140E+01-8.333319640E+00+
*       4.2856912454E+00               0
GRID*               5757               0-1.385813412E+01-5.740340126E+00+
*       4.2857244895E+00               0
GRID*               5758               0-1.471166705E+01-2.926374109E+00+
*       1.4285763179E+00               0
GRID*               5759               0-1.471152524E+01-2.926926481E+00+
*       4.2857719755E+00               0
GRID*               5760               0-1.499984169E+019.7055515721E-04+
*       4.2856244430E+00               0
GRID*               5761               0-1.471156388E+012.9267759744E+00+
*       1.4285281499E+00               0
GRID*               5762               0-1.471151998E+012.9269469773E+00+
*       4.2856546556E+00               0
GRID*               5763               0-1.385816533E+015.7402833686E+00+
*       4.2857100792E+00               0
GRID*               5764               0-1.247221963E+018.3331409870E+00+
*       1.4286133467E+00               0
GRID*               5765               0-1.247223470E+018.3331135704E+00+
*       4.2857591005E+00               0
GRID*               5766               0-1.060634289E+011.0606673049E+01+
*       4.2856934437E+00               0
GRID*               5767               0-8.332829103E+001.2472328821E+01+
*       1.4285004139E+00               0
GRID*               5768               0-8.332660275E+001.2472435975E+01+
*       4.2856247576E+00               0
GRID*               5769               0-5.739915349E+001.3858239765E+01+
*       4.2856827084E+00               0
GRID*               5770               0-2.926384458E+001.4711767264E+01+
*       1.4285746168E+00               0
GRID*               5771               0-2.926380434E+001.4711768572E+01+
*       4.2857170824E+00               0
GRID*               5772               0-6.716298862E-041.4999868024E+01+
*       4.2857777499E+00               0
GRID*               5773               02.9272037125E+001.4711457544E+01+
*       1.4284887835E+00               0
GRID*               5774               02.9271990542E+001.4711458433E+01+
*       4.2856320685E+00               0
GRID*               5775               05.7408682497E+001.3857773524E+01+
*       4.2856455911E+00               0
GRID*               5776               08.3335889346E+001.2471990583E+01+
*       1.4285652485E+00               0
GRID*               5777               08.3336130478E+001.2471970636E+01+
*       4.2857052077E+00               0
GRID*               5778               01.0606314383E+011.0606799990E+01+
*       4.2857470756E+00               0
GRID*               5779               01.2472252085E+018.3330474853E+00+
*       1.4285226477E+00               0
GRID*               5780               01.2471842878E+018.3336108331E+00+
*       4.2857299747E+00               0
GRID*               5781               01.3858418136E+015.7392657649E+00+
*       4.2856215567E+00               0
GRID*               5782               01.3857794858E+01-5.740839795E+00+
*       -1.428635474E+00               0
GRID*               5783               01.2471825161E+01-8.333635224E+00+
*       -4.285732786E+00               0
GRID*               5784               01.2471706296E+01-8.333798864E+00+
*       -1.428608655E+00               0
GRID*               5785               01.0606534407E+01-1.060661798E+01+
*       -1.428577775E+00               0
GRID*               5786               08.3336561149E+00-1.247193501E+01+
*       -4.285700029E+00               0
GRID*               5787               08.3337117134E+00-1.247188902E+01+
*       -1.428550492E+00               0
GRID*               5788               05.7396797422E+00-1.385833283E+01+
*       -1.428624313E+00               0
GRID*               5789               02.9260141151E+00-1.471168441E+01+
*       -4.285743715E+00               0
GRID*               5790               02.9257327760E+00-1.471173806E+01+
*       -1.428627378E+00               0
GRID*               5791               0-2.271684158E-04-1.499989596E+01+
*       -1.428593679E+00               0
GRID*               5792               0-2.926353774E+00-1.471177724E+01+
*       -4.285714488E+00               0
GRID*               5793               0-2.926356155E+00-1.471177646E+01+
*       -1.428571863E+00               0
GRID*               5794               0-5.740044201E+00-1.385819789E+01+
*       -1.428552407E+00               0
GRID*               5795               0-8.333824518E+00-1.247169704E+01+
*       -4.285752434E+00               0
GRID*               5796               0-8.334063758E+00-1.247154520E+01+
*       -1.428635812E+00               0
GRID*               5797               0-1.060680951E+01-1.060617617E+01+
*       -1.428613700E+00               0
GRID*               5798               0-1.247202520E+01-8.333494587E+00+
*       -4.285718841E+00               0
GRID*               5799               0-1.247205157E+01-8.333446638E+00+
*       -1.428581050E+00               0
GRID*               5800               0-1.385812663E+01-5.740353748E+00+
*       -1.428559785E+00               0
GRID*               5801               0-1.471178284E+01-2.925923064E+00+
*       -4.285752498E+00               0
GRID*               5802               0-1.471179446E+01-2.925877811E+00+
*       -1.428613976E+00               0
GRID*               5803               0-1.499984169E+016.4321423732E-04+
*       -1.428630932E+00               0
GRID*               5804               0-1.471164474E+012.9264609863E+00+
*       -4.285727452E+00               0
GRID*               5805               0-1.471160744E+012.9266062784E+00+
*       -1.428598483E+00               0
GRID*               5806               0-1.385817846E+015.7402594891E+00+
*       -1.428573112E+00               0
GRID*               5807               0-1.247195898E+018.3336150222E+00+
*       -4.285722454E+00               0
GRID*               5808               0-1.247214927E+018.3332689381E+00+
*       -1.428543030E+00               0
GRID*               5809               0-1.060603115E+011.0607005003E+01+
*       -1.428634435E+00               0
GRID*               5810               0-8.333257624E+001.2472056844E+01+
*       -4.285738309E+00               0
GRID*               5811               0-8.333046464E+001.2472190865E+01+
*       -1.428618607E+00               0
GRID*               5812               0-5.740101805E+001.3858179173E+01+
*       -1.428584855E+00               0
GRID*               5813               0-2.926388366E+001.4711765994E+01+
*       -4.285710717E+00               0
GRID*               5814               0-2.926387549E+001.4711766260E+01+
*       -1.428567939E+00               0
GRID*               5815               03.0333200723E-041.4999929311E+01+
*       -1.428598415E+00               0
GRID*               5816               02.9266912904E+001.4711555267E+01+
*       -4.285748618E+00               0
GRID*               5817               02.9269878272E+001.4711498715E+01+
*       -1.428633715E+00               0
GRID*               5818               05.7405104470E+001.3857941903E+01+
*       -1.428603498E+00               0
GRID*               5819               08.3335518239E+001.2472021282E+01+
*       -4.285716006E+00               0
GRID*               5820               08.3335681105E+001.2472007809E+01+
*       -1.428575106E+00               0
GRID*               5821               01.0606356258E+011.0606765351E+01+
*       -1.428543669E+00               0
GRID*               5822               01.2472195897E+018.3331248391E+00+
*       -4.285754228E+00               0
GRID*               5823               01.2472319504E+018.3329546714E+00+
*       -1.428630838E+00               0
GRID*               5824               01.3858255412E+015.7396767087E+00+
*       -1.428623245E+00               0
GRID*               5825               01.4711715951E+01-2.926261787E+00+
*       2.4285722742E+01               0
GRID*               5826               01.4711707564E+01-2.926328185E+00+
*       2.7142859404E+01               0
GRID*               5827               01.3858079651E+01-5.740120577E+00+
*       2.7142864755E+01               0
GRID*               5828               01.4711743453E+01-2.926044062E+00+
*       1.8571457347E+01               0
GRID*               5829               01.4711728378E+01-2.926163409E+00+
*       2.1428589066E+01               0
GRID*               5830               01.4711775026E+01-2.925794105E+00+
*       1.2857194962E+01               0
GRID*               5831               01.4711759616E+01-2.925916106E+00+
*       1.5714326432E+01               0
GRID*               5832               01.4711793455E+01-2.925648213E+00+
*       7.1429228649E+00               0
GRID*               5833               01.4711787369E+01-2.925696391E+00+
*       1.0000061225E+01               0
GRID*               5834               01.4711763180E+01-2.925887886E+00+
*       1.4286147849E+00               0
GRID*               5835               01.4711788347E+01-2.925688648E+00+
*       4.2857762351E+00               0
GRID*               5836               01.4711663763E+01-2.926674948E+00+
*       -4.285744379E+00               0
GRID*               5837               01.4711699006E+01-2.926395938E+00+
*       -1.428575485E+00               0
GRID*               5838               01.4711685038E+01-2.926506518E+00+
*       -7.142871516E+00               0
GRID*               5839               01.3858005610E+01-5.740307561E+00+
*       -7.142868185E+00               0
GRID*               5840               01.2471910173E+01-8.333518190E+00+
*       -7.142862246E+00               0
GRID*               5841               01.0606580714E+01-1.060657968E+01+
*       -7.142857926E+00               0
GRID*               5842               08.3334867555E+00-1.247207511E+01+
*       -7.142863237E+00               0
GRID*               5843               05.7400618589E+00-1.385815300E+01+
*       -7.142870913E+00               0
GRID*               5844               02.9262368959E+00-1.471164192E+01+
*       -7.142865581E+00               0
GRID*               5845               0-1.874145804E-05-1.499990906E+01+
*       -7.142860049E+00               0
GRID*               5846               0-2.926352249E+00-1.471177773E+01+
*       -7.142857197E+00               0
GRID*               5847               0-5.740382401E+00-1.385808799E+01+
*       -7.142871051E+00               0
GRID*               5848               0-8.333584478E+00-1.247184939E+01+
*       -7.142868968E+00               0
GRID*               5849               0-1.060654060E+01-1.060646252E+01+
*       -7.142863043E+00               0
GRID*               5850               0-1.247200778E+01-8.333526285E+00+
*       -7.142858349E+00               0
GRID*               5851               0-1.385817414E+01-5.740267345E+00+
*       -7.142854629E+00               0
GRID*               5852               0-1.471171835E+01-2.926174268E+00+
*       -7.142871340E+00               0
GRID*               5853               0-1.499984169E+011.0078873108E-04+
*       -7.142866433E+00               0
GRID*               5854               0-1.471167057E+012.9263603862E+00+
*       -7.142860700E+00               0
GRID*               5855               0-1.385818615E+015.7402454970E+00+
*       -7.142857348E+00               0
GRID*               5856               0-1.247193499E+018.3336586687E+00+
*       -7.142869923E+00               0
GRID*               5857               0-1.060640408E+011.0606607891E+01+
*       -7.142869711E+00               0
GRID*               5858               0-8.333415228E+001.2471956815E+01+
*       -7.142863882E+00               0
GRID*               5859               0-5.740222103E+001.3858140080E+01+
*       -7.142858853E+00               0
GRID*               5860               0-2.926380694E+001.4711768487E+01+
*       -7.142854321E+00               0
GRID*               5861               01.6804943695E-041.4999920807E+01+
*       -7.142871587E+00               0
GRID*               5862               02.9264347941E+001.4711604182E+01+
*       -7.142867307E+00               0
GRID*               5863               05.7402387976E+001.3858069739E+01+
*       -7.142861426E+00               0
GRID*               5864               08.3335412401E+001.2472030037E+01+
*       -7.142857593E+00               0
GRID*               5865               01.0606674982E+011.0606501698E+01+
*       -7.142867680E+00               0
GRID*               5866               01.2472026459E+018.3333581012E+00+
*       -7.142870390E+00               0
GRID*               5867               01.3858079651E+015.7401205767E+00+
*       -7.142864755E+00               0
GRID*               5868               01.4711707564E+012.9263281854E+00+
*       -7.142859404E+00               0
GRID*               5869               01.4711715951E+012.9262617865E+00+
*       -4.285722742E+00               0
GRID*               5870               01.4711743453E+012.9260440618E+00+
*       1.4285426529E+00               0
GRID*               5871               01.4711728378E+012.9261634092E+00+
*       -1.428589066E+00               0
GRID*               5872               01.4711775026E+012.9257941049E+00+
*       7.1428050381E+00               0
GRID*               5873               01.4711759616E+012.9259161063E+00+
*       4.2856735678E+00               0
GRID*               5874               01.4711793455E+012.9256482134E+00+
*       1.2857077135E+01               0
GRID*               5875               01.4711787369E+012.9256963913E+00+
*       9.9999387751E+00               0
GRID*               5876               01.4711763180E+012.9258878857E+00+
*       1.8571385215E+01               0
GRID*               5877               01.4711788347E+012.9256886477E+00+
*       1.5714223765E+01               0
GRID*               5878               01.4711663763E+012.9266749483E+00+
*       2.4285744379E+01               0
GRID*               5879               01.4711699006E+012.9263959379E+00+
*       2.1428575485E+01               0
GRID*               5880               01.4711685038E+012.9265065180E+00+
*       2.7142871516E+01               0
GRID*               5881               01.3858005610E+015.7403075608E+00+
*       2.7142868185E+01               0
GRID*               5882               01.2471910173E+018.3335181898E+00+
*       2.7142862246E+01               0
GRID*               5883               01.0606580714E+011.0606579678E+01+
*       2.7142857926E+01               0
GRID*               5884               08.3334867555E+001.2472075107E+01+
*       2.7142863237E+01               0
GRID*               5885               05.7400618589E+001.3858153005E+01+
*       2.7142870913E+01               0
GRID*               5886               02.9262368959E+001.4711641923E+01+
*       2.7142865581E+01               0
GRID*               5887               0-1.874145805E-051.4999909065E+01+
*       2.7142860049E+01               0
GRID*               5888               0-2.926352249E+001.4711777731E+01+
*       2.7142857197E+01               0
GRID*               5889               0-5.740382401E+001.3858087987E+01+
*       2.7142871051E+01               0
GRID*               5890               0-8.333584478E+001.2471849394E+01+
*       2.7142868968E+01               0
GRID*               5891               0-1.060654060E+011.0606462516E+01+
*       2.7142863043E+01               0
GRID*               5892               0-1.247200778E+018.3335262854E+00+
*       2.7142858349E+01               0
GRID*               5893               0-1.385817414E+015.7402673455E+00+
*       2.7142854629E+01               0
GRID*               5894               0-1.471171835E+012.9261742675E+00+
*       2.7142871340E+01               0
GRID*               5895               0-1.499984169E+01-1.007887312E-04+
*       2.7142866433E+01               0
GRID*               5896               0-1.471167057E+01-2.926360386E+00+
*       2.7142860700E+01               0
GRID*               5897               0-1.385818615E+01-5.740245497E+00+
*       2.7142857348E+01               0
GRID*               5898               0-1.247193499E+01-8.333658669E+00+
*       2.7142869923E+01               0
GRID*               5899               0-1.060640408E+01-1.060660789E+01+
*       2.7142869711E+01               0
GRID*               5900               0-8.333415228E+00-1.247195682E+01+
*       2.7142863882E+01               0
GRID*               5901               0-5.740222103E+00-1.385814008E+01+
*       2.7142858853E+01               0
GRID*               5902               0-2.926380694E+00-1.471176849E+01+
*       2.7142854321E+01               0
GRID*               5903               01.6804943697E-04-1.499992081E+01+
*       2.7142871587E+01               0
GRID*               5904               02.9264347941E+00-1.471160418E+01+
*       2.7142867307E+01               0
GRID*               5905               05.7402387976E+00-1.385806974E+01+
*       2.7142861426E+01               0
GRID*               5906               08.3335412401E+00-1.247203004E+01+
*       2.7142857593E+01               0
GRID*               5907               01.0606674982E+01-1.060650170E+01+
*       2.7142867680E+01               0
GRID*               5908               01.2472026459E+01-8.333358101E+00+
*       2.7142870390E+01               0
GRID*               5397               01.9752286316E+015.0202613825E+00+
*       3.0000000000E+01               0
GRID*               5398               0-1.680533874E+01-1.158685761E+01+
*       3.0000000000E+01               0
GRID*               5399               03.1659700209E+00-2.011822861E+01+
*       3.0000000000E+01               0
GRID*               5400               02.0135283623E+01-3.312283754E+00+
*       3.0000000000E+01               0
GRID*               5401               01.0958000399E+01-1.722496198E+01+
*       3.0000000000E+01               0
GRID*               5402               01.7037074703E+01-1.123686268E+01+
*       3.0000000000E+01               0
GRID*               5403               0-1.074075873E+01-1.733158407E+01+
*       3.0000000000E+01               0
GRID*               5404               0-3.933752151E+00-1.946152287E+01+
*       3.0000000000E+01               0
GRID*               5405               0-1.202514602E+011.6438984037E+01+
*       3.0000000000E+01               0
GRID*               5406               01.1698583941E+011.6693421016E+01+
*       3.0000000000E+01               0
GRID*               5407               01.6358417449E+011.1255489285E+01+
*       3.0000000000E+01               0
GRID*               5408               0-4.479278209E+001.9918710223E+01+
*       3.0000000000E+01               0
GRID*               5409               04.0392326312E+002.0010265471E+01+
*       3.0000000000E+01               0
GRID*               5410               0-1.985555488E+014.6032161914E+00+
*       3.0000000000E+01               0
GRID*               5411               0-2.007008204E+01-3.731776412E+00+
*       3.0000000000E+01               0
GRID*               5412               0-1.656326806E+011.0944080004E+01+
*       3.0000000000E+01               0
GRID*               5413               01.7376143158E+012.5101306912E+00+
*       3.0000000000E+01               0
GRID*               5414               01.6805169427E+015.3802284498E+00+
*       3.0000000000E+01               0
GRID*               5415               01.7567641811E+01-1.656141877E+00+
*       3.0000000000E+01               0
GRID*               5416               01.6996668080E+01-4.526239635E+00+
*       3.0000000000E+01               0
GRID*               5417               01.9943784970E+018.5398881435E-01+
*       3.0000000000E+01               0
GRID*               5418               02.2965552867E+01-7.611782898E-01+
*       3.0000000000E+01               0
GRID*               5419               02.2856436456E+01-3.554562616E+00+
*       3.0000000000E+01               0
GRID*               5420               02.2774054213E+013.4050942784E+00+
*       3.0000000000E+01               0
GRID*               5421               02.2149508484E+01-6.258927252E+00+
*       3.0000000000E+01               0
GRID*               5422               05.8967793353E+00-2.224715941E+01+
*       3.0000000000E+01               0
GRID*               5423               03.1755726184E+00-2.288954870E+01+
*       3.0000000000E+01               0
GRID*               5424               08.3491018512E+00-1.554152539E+01+
*       3.0000000000E+01               0
GRID*               5425               01.0782291719E+01-1.391577060E+01+
*       3.0000000000E+01               0
GRID*               5426               07.0619852101E+00-1.867159529E+01+
*       3.0000000000E+01               0
GRID*               5427               04.4530866620E+00-1.698815871E+01+
*       3.0000000000E+01               0
GRID*               5428               09.7927945245E+00-2.080052609E+01+
*       3.0000000000E+01               0
GRID*               5429               01.2312761897E+01-1.958777031E+01+
*       3.0000000000E+01               0
GRID*               5430               01.4511770798E+01-1.786268798E+01+
*       3.0000000000E+01               0
GRID*               5431               01.3997537551E+01-1.423091233E+01+
*       3.0000000000E+01               0
GRID*               5432               01.3821828871E+01-1.092172095E+01+
*       3.0000000000E+01               0
GRID*               5433               01.7551307950E+01-1.486863834E+01+
*       3.0000000000E+01               0
GRID*               5434               01.9328802578E+01-1.271035948E+01+
*       3.0000000000E+01               0
GRID*               5435               01.5447563620E+01-8.488529101E+00+
*       3.0000000000E+01               0
GRID*               5436               01.8586179163E+01-7.274573219E+00+
*       3.0000000000E+01               0
GRID*               5437               02.0600404024E+01-1.022121672E+01+
*       3.0000000000E+01               0
GRID*               5438               0-1.067363025E+01-1.396904562E+01+
*       3.0000000000E+01               0
GRID*               5439               0-8.240495869E+00-1.559486113E+01+
*       3.0000000000E+01               0
GRID*               5440               0-1.370592026E+01-1.109668239E+01+
*       3.0000000000E+01               0
GRID*               5441               0-1.533176226E+01-8.663552485E+00+
*       3.0000000000E+01               0
GRID*               5442               0-1.377304874E+01-1.445922084E+01+
*       3.0000000000E+01               0
GRID*               5443               0-1.715044871E+01-1.531359578E+01+
*       3.0000000000E+01               0
GRID*               5444               0-1.899270361E+01-1.321018818E+01+
*       3.0000000000E+01               0
GRID*               5445               0-1.411815871E+01-1.818595901E+01+
*       3.0000000000E+01               0
GRID*               5446               01.5829875304E+00-1.755907051E+01+
*       3.0000000000E+01               0
GRID*               5447               0-1.186738786E+01-1.984370570E+01+
*       3.0000000000E+01               0
GRID*               5448               0-3.170545349E+00-2.260353586E+01+
*       3.0000000000E+01               0
GRID*               5449               0-5.909586257E+00-2.204385726E+01+
*       3.0000000000E+01               0
GRID*               5450               0-3.838910653E-01-1.978987574E+01+
*       3.0000000000E+01               0
GRID*               5451               0-1.966873556E+00-1.723071764E+01+
*       3.0000000000E+01               0
GRID*               5452               03.7931573766E-01-2.293188873E+01+
*       3.0000000000E+01               0
GRID*               5453               0-4.836992578E+00-1.665983053E+01+
*       3.0000000000E+01               0
GRID*               5454               0-7.337255443E+00-1.839655347E+01+
*       3.0000000000E+01               0
GRID*               5455               0-9.313089548E+00-2.097888786E+01+
*       3.0000000000E+01               0
GRID*               5456               02.2280002839E+016.1571352294E+00+
*       3.0000000000E+01               0
GRID*               5457               01.5108234993E+018.4978424011E+00+
*       3.0000000000E+01               0
GRID*               5458               01.3482500244E+011.0931034251E+01+
*       3.0000000000E+01               0
GRID*               5459               01.8055351883E+018.1378753338E+00+
*       3.0000000000E+01               0
GRID*               5460               02.1205853165E+018.7386911389E+00+
*       3.0000000000E+01               0
GRID*               5461               01.9508918731E+011.1856305090E+01+
*       3.0000000000E+01               0
GRID*               5462               01.7904855302E+011.4146476207E+01+
*       3.0000000000E+01               0
GRID*               5463               01.1152583490E+011.3650000116E+01+
*       3.0000000000E+01               0
GRID*               5464               08.7193936220E+001.5275754914E+01+
*       3.0000000000E+01               0
GRID*               5465               01.4028500695E+011.3974455150E+01+
*       3.0000000000E+01               0
GRID*               5466               01.5574938548E+011.6865442072E+01+
*       3.0000000000E+01               0
GRID*               5467               01.3516801325E+011.8756633307E+01+
*       3.0000000000E+01               0
GRID*               5468               01.1099583529E+012.0161604301E+01+
*       3.0000000000E+01               0
GRID*               5469               0-1.161892593E+011.9869620892E+01+
*       3.0000000000E+01               0
GRID*               5470               0-1.399260298E+011.8391824619E+01+
*       3.0000000000E+01               0
GRID*               5471               0-5.109755607E+001.6888424205E+01+
*       3.0000000000E+01               0
GRID*               5472               0-2.239636584E+001.7459311320E+01+
*       3.0000000000E+01               0
GRID*               5473               0-8.252212114E+001.8178847130E+01+
*       3.0000000000E+01               0
GRID*               5474               0-8.882689512E+001.5148561112E+01+
*       3.0000000000E+01               0
GRID*               5475               0-7.845992026E+002.1609483985E+01+
*       3.0000000000E+01               0
GRID*               5476               0-5.210641375E+002.2542293201E+01+
*       3.0000000000E+01               0
GRID*               5477               0-2.434566634E+002.2886814143E+01+
*       3.0000000000E+01               0
GRID*               5478               0-2.200227888E-011.9964487847E+01+
*       3.0000000000E+01               0
GRID*               5479               02.0196188356E+001.7505088944E+01+
*       3.0000000000E+01               0
GRID*               5480               01.8246887861E+002.2932591767E+01+
*       3.0000000000E+01               0
GRID*               5481               04.6080859504E+002.2672299594E+01+
*       3.0000000000E+01               0
GRID*               5482               04.8897179671E+001.6934177142E+01+
*       3.0000000000E+01               0
GRID*               5483               07.8689082861E+001.8351843243E+01+
*       3.0000000000E+01               0
GRID*               5484               07.2699078742E+002.1820026529E+01+
*       3.0000000000E+01               0
GRID*               5485               0-2.033928991E+01-1.076075910E+01+
*       3.0000000000E+01               0
GRID*               5486               0-1.742769950E+012.3016080957E+00+
*       3.0000000000E+01               0
GRID*               5487               0-1.685687033E+015.1717317773E+00+
*       3.0000000000E+01               0
GRID*               5488               0-1.843771039E+01-7.659317009E+00+
*       3.0000000000E+01               0
GRID*               5489               0-1.696413391E+01-4.736011887E+00+
*       3.0000000000E+01               0
GRID*               5490               0-2.197166157E+01-6.833218499E+00+
*       3.0000000000E+01               0
GRID*               5491               0-2.276065035E+01-4.149776634E+00+
*       3.0000000000E+01               0
GRID*               5492               0-1.753496308E+01-1.865888206E+00+
*       3.0000000000E+01               0
GRID*               5493               0-1.996281846E+014.3571988983E-01+
*       3.0000000000E+01               0
GRID*               5494               0-2.295411042E+01-1.361139105E+00+
*       3.0000000000E+01               0
GRID*               5495               0-2.284684684E+012.8063571965E+00+
*       3.0000000000E+01               0
GRID*               5496               0-1.131582389E+011.3522745607E+01+
*       3.0000000000E+01               0
GRID*               5497               0-2.243652500E+015.5709382361E+00+
*       3.0000000000E+01               0
GRID*               5498               0-1.826180151E+011.3691106927E+01+
*       3.0000000000E+01               0
GRID*               5499               0-1.979509265E+011.1354002397E+01+
*       3.0000000000E+01               0
GRID*               5500               0-1.429420704E+011.3691532021E+01+
*       3.0000000000E+01               0
GRID*               5501               0-1.358488492E+011.0775293590E+01+
*       3.0000000000E+01               0
GRID*               5502               0-1.599274049E+011.6438558943E+01+
*       3.0000000000E+01               0
GRID*               5503               0-1.521072692E+018.3421636837E+00+
*       3.0000000000E+01               0
GRID*               5504               0-1.820941147E+017.7736480978E+00+
*       3.0000000000E+01               0
GRID*               5505               0-2.144123605E+018.1835704903E+00+
*       3.0000000000E+01               0
GRID*               5290               0-3.865570021E+00-1.894546631E+01+
*       -1.000000000E+01               0
GRID*               5291               01.0409719061E+011.6308211179E+01+
*       -1.000000000E+01               0
GRID*               5292               0-1.956028732E+013.3674900237E+00+
*       -1.000000000E+01               0
GRID*               5293               0-1.895464471E+01-3.854602268E+00+
*       -1.000000000E+01               0
GRID*               5294               0-1.669673565E+01-1.071787621E+01+
*       -1.000000000E+01               0
GRID*               5295               0-1.076281518E+01-1.665790344E+01+
*       -1.000000000E+01               0
GRID*               5296               0-1.092579198E+011.5950618451E+01+
*       -1.000000000E+01               0
GRID*               5297               0-4.565566029E+001.9304417677E+01+
*       -1.000000000E+01               0
GRID*               5298               03.8297959385E+001.9461904634E+01+
*       -1.000000000E+01               0
GRID*               5299               0-1.640491076E+011.1147210747E+01+
*       -1.000000000E+01               0
GRID*               5300               01.5928255277E+01-1.095526542E+01+
*       -1.000000000E+01               0
GRID*               5301               03.3165768565E+00-1.955962619E+01+
*       -1.000000000E+01               0
GRID*               5302               01.1109282481E+01-1.642787550E+01+
*       -1.000000000E+01               0
GRID*               5303               01.5982525089E+011.1721044248E+01+
*       -1.000000000E+01               0
GRID*               5304               01.9292261819E+01-4.596341547E+00+
*       -1.000000000E+01               0
GRID*               5305               01.9455553403E+013.9550696359E+00+
*       -1.000000000E+01               0
GRID*               5306               0-5.884873423E+00-2.133152392E+01+
*       -1.000000000E+01               0
GRID*               5307               0-3.043981730E+00-2.192322367E+01+
*       -1.000000000E+01               0
GRID*               5308               0-2.134913120E+01-5.840084619E+00+
*       -1.000000000E+01               0
GRID*               5309               0-2.193141083E+01-2.997584020E+00+
*       -1.000000000E+01               0
GRID*               5310               0-1.527746071E+01-8.229061788E+00+
*       -1.000000000E+01               0
GRID*               5311               0-1.365161871E+01-1.066219169E+01+
*       -1.000000000E+01               0
GRID*               5312               0-1.782569018E+01-7.286239240E+00+
*       -1.000000000E+01               0
GRID*               5313               0-1.640641524E+01-4.797424815E+00+
*       -1.000000000E+01               0
GRID*               5314               0-2.022017667E+01-9.271721591E+00+
*       -1.000000000E+01               0
GRID*               5315               0-1.899798668E+01-1.190382859E+01+
*       -1.000000000E+01               0
GRID*               5316               0-1.720178558E+01-1.418316574E+01+
*       -1.000000000E+01               0
GRID*               5317               0-1.372977542E+01-1.368788982E+01+
*       -1.000000000E+01               0
GRID*               5318               0-1.068465848E+01-1.363220531E+01+
*       -1.000000000E+01               0
GRID*               5319               0-1.423482535E+01-1.715317935E+01+
*       -1.000000000E+01               0
GRID*               5320               0-1.196197276E+01-1.895656481E+01+
*       -1.000000000E+01               0
GRID*               5321               0-8.251524095E+00-1.525802081E+01+
*       -1.000000000E+01               0
GRID*               5322               0-7.314192603E+00-1.780168487E+01+
*       -1.000000000E+01               0
GRID*               5323               0-4.802901513E+00-1.640180225E+01+
*       -1.000000000E+01               0
GRID*               5324               0-9.333496004E+00-2.018774248E+01+
*       -1.000000000E+01               0
GRID*               5325               0-1.697724442E+01-1.927301134E+00+
*       -1.000000000E+01               0
GRID*               5326               0-1.728006572E+011.6837450119E+00+
*       -1.000000000E+01               0
GRID*               5327               0-1.670923655E+014.5538686935E+00+
*       -1.000000000E+01               0
GRID*               5328               0-1.925746601E+01-2.435561219E-01+
*       -1.000000000E+01               0
GRID*               5329               0-2.223423213E+016.1346212606E-01+
*       -1.000000000E+01               0
GRID*               5330               0-2.214538495E+013.5142632170E+00+
*       -1.000000000E+01               0
GRID*               5331               01.0506411079E+011.9474154192E+01+
*       -1.000000000E+01               0
GRID*               5332               01.2973868917E+011.7946557090E+01+
*       -1.000000000E+01               0
GRID*               5333               0-1.137668508E+011.8987865142E+01+
*       -1.000000000E+01               0
GRID*               5334               0-1.375704034E+011.7327156388E+01+
*       -1.000000000E+01               0
GRID*               5335               0-5.152899517E+001.6581277932E+01+
*       -1.000000000E+01               0
GRID*               5336               0-2.282780494E+001.7152165047E+01+
*       -1.000000000E+01               0
GRID*               5337               0-7.745679005E+001.7627518064E+01+
*       -1.000000000E+01               0
GRID*               5338               0-8.333012493E+001.4904378319E+01+
*       -1.000000000E+01               0
GRID*               5339               0-8.196572106E+002.0664764755E+01+
*       -1.000000000E+01               0
GRID*               5340               0-5.497638615E+002.1731722712E+01+
*       -1.000000000E+01               0
GRID*               5341               0-2.624699967E+002.2147531888E+01+
*       -1.000000000E+01               0
GRID*               5342               0-3.678850452E-011.9383161156E+01+
*       -1.000000000E+01               0
GRID*               5343               01.9149004892E+001.7230908525E+01+
*       -1.000000000E+01               0
GRID*               5344               01.5729810171E+002.2226275366E+01+
*       -1.000000000E+01               0
GRID*               5345               04.4629123584E+002.1968501288E+01+
*       -1.000000000E+01               0
GRID*               5346               04.7849996208E+001.6659996723E+01+
*       -1.000000000E+01               0
GRID*               5347               07.1197574999E+001.7885057906E+01+
*       -1.000000000E+01               0
GRID*               5348               08.0749611821E+001.5083149995E+01+
*       -1.000000000E+01               0
GRID*               5349               07.2164495175E+002.1051000919E+01+
*       -1.000000000E+01               0
GRID*               5350               0-2.138938707E+016.3179054065E+00+
*       -1.000000000E+01               0
GRID*               5351               0-1.076614687E+011.3278562813E+01+
*       -1.000000000E+01               0
GRID*               5352               0-1.798259904E+017.2573503855E+00+
*       -1.000000000E+01               0
GRID*               5353               0-1.513154827E+018.4437290553E+00+
*       -1.000000000E+01               0
GRID*               5354               0-1.981169879E+011.0207765768E+01+
*       -1.000000000E+01               0
GRID*               5355               0-1.843029431E+011.2759781556E+01+
*       -1.000000000E+01               0
GRID*               5356               0-1.350570626E+011.0876858962E+01+
*       -1.000000000E+01               0
GRID*               5357               0-1.366535137E+011.3548914599E+01+
*       -1.000000000E+01               0
GRID*               5358               0-1.649659973E+011.4925452536E+01+
*       -1.000000000E+01               0
GRID*               5359               0-1.932782491E+00-1.697268936E+01+
*       -1.000000000E+01               0
GRID*               5360               01.6582909482E+00-1.727976930E+01+
*       -1.000000000E+01               0
GRID*               5361               04.5283900798E+00-1.670885750E+01+
*       -1.000000000E+01               0
GRID*               5362               0-2.744965825E-01-1.925254625E+01+
*       -1.000000000E+01               0
GRID*               5363               05.4709170876E-01-2.223030360E+01+
*       -1.000000000E+01               0
GRID*               5364               03.4481922499E+00-2.215099598E+01+
*       -1.000000000E+01               0
GRID*               5365               06.2533920335E+00-2.140456881E+01+
*       -1.000000000E+01               0
GRID*               5366               01.3267419158E+01-1.078092232E+01+
*       -1.000000000E+01               0
GRID*               5367               01.4893153907E+01-8.347730470E+00+
*       -1.000000000E+01               0
GRID*               5368               07.2129296688E+00-1.799375084E+01+
*       -1.000000000E+01               0
GRID*               5369               08.4247428921E+00-1.514298216E+01+
*       -1.000000000E+01               0
GRID*               5370               01.0149744846E+01-1.983869346E+01+
*       -1.000000000E+01               0
GRID*               5371               01.2706099504E+01-1.846609115E+01+
*       -1.000000000E+01               0
GRID*               5372               01.0857932760E+01-1.351722736E+01+
*       -1.000000000E+01               0
GRID*               5373               01.3518768879E+01-1.369157046E+01+
*       -1.000000000E+01               0
GRID*               5374               01.4878308038E+01-1.653975418E+01+
*       -1.000000000E+01               0
GRID*               5375               01.7287794436E+01-1.380344915E+01+
*       -1.000000000E+01               0
GRID*               5376               01.0508151050E+011.3457395198E+01+
*       -1.000000000E+01               0
GRID*               5377               01.3294554064E+011.1163811733E+01+
*       -1.000000000E+01               0
GRID*               5378               01.4920288813E+018.7306198826E+00+
*       -1.000000000E+01               0
GRID*               5379               01.3196122075E+011.4014627713E+01+
*       -1.000000000E+01               0
GRID*               5380               01.5760271931E+011.5652973625E+01+
*       -1.000000000E+01               0
GRID*               5381               01.7808736821E+011.3597904647E+01+
*       -1.000000000E+01               0
GRID*               5382               01.9328460726E+011.1125304282E+01+
*       -1.000000000E+01               0
GRID*               5383               01.8956644357E+01-1.142856974E+01+
*       -1.000000000E+01               0
GRID*               5384               01.6575157178E+01-5.168268532E+00+
*       -1.000000000E+01               0
GRID*               5385               01.7146130909E+01-2.298170774E+00+
*       -1.000000000E+01               0
GRID*               5386               01.7610258548E+01-7.775803485E+00+
*       -1.000000000E+01               0
GRID*               5387               02.0638647628E+01-8.249107797E+00+
*       -1.000000000E+01               0
GRID*               5388               02.1714869467E+01-5.553227730E+00+
*       -1.000000000E+01               0
GRID*               5389               02.2140265434E+01-2.680629131E+00+
*       -1.000000000E+01               0
GRID*               5390               01.9373907611E+01-3.206359556E-01+
*       -1.000000000E+01               0
GRID*               5391               01.7227776702E+011.9775348179E+00+
*       -1.000000000E+01               0
GRID*               5392               02.2221911227E+011.5950764603E+00+
*       -1.000000000E+01               0
GRID*               5393               02.1973356629E+014.4866723253E+00+
*       -1.000000000E+01               0
GRID*               5394               01.6656802970E+014.8476325765E+00+
*       -1.000000000E+01               0
GRID*               5395               01.7719039246E+017.8380569420E+00+
*       -1.000000000E+01               0
GRID*               5396               02.1064974883E+017.2423169762E+00+
*       -1.000000000E+01               0
GRID*               3931               0-5.023986502E+013.6524262443E+00+
*       6.6666325740E+00               0
GRID*               3932               0-5.578413993E+015.9484644730E+00+
*       6.6666325995E+00               0
GRID*               3933               0-6.054327774E+012.2961003780E+00+
*       6.6666666667E+00               0
GRID*               3934               0-5.976013453E+01-3.652426235E+00+
*       6.6666325740E+00               0
GRID*               3935               0-5.421585989E+01-5.948464450E+00+
*       6.6666325995E+00               0
GRID*               3936               0-5.023933032E+013.6517292232E+00+
*       1.3333367405E+01               0
GRID*               3937               0-5.578326896E+015.9485791240E+00+
*       1.3333367420E+01               0
GRID*               3938               0-6.054327774E+012.2961003780E+00+
*       1.3333333333E+01               0
GRID*               3939               0-5.976066907E+01-3.651729095E+00+
*       1.3333367405E+01               0
GRID*               3940               0-5.421673087E+01-5.948579101E+00+
*       1.3333367420E+01               0
GRID*               3941               0-5.023959906E+013.6520795448E+00+
*       9.9999998125E+00               0
GRID*               3942               0-5.270389963E+015.5432773656E+00+
*       1.3333333333E+01               0
GRID*               3943               0-5.270389963E+015.5432773656E+00+
*       1.0000000000E+01               0
GRID*               3944               0-5.578370218E+015.9485220970E+00+
*       1.0000000188E+01               0
GRID*               3945               0-5.270389963E+015.5432773656E+00+
*       6.6666666667E+00               0
GRID*               3946               0-5.865172920E+014.7606698436E+00+
*       1.3333367405E+01               0
GRID*               3947               0-5.865207949E+014.7604010651E+00+
*       9.9999998122E+00               0
GRID*               3948               0-6.054327774E+012.2961003780E+00+
*       1.0000000000E+01               0
GRID*               3949               0-5.865242616E+014.7601350696E+00+
*       6.6666325739E+00               0
GRID*               3950               0-6.094857916E+01-7.832690591E-01+
*       1.3333367420E+01               0
GRID*               3951               0-6.094852214E+01-7.837022803E-01+
*       1.0000000188E+01               0
GRID*               3952               0-5.976040041E+01-3.652079474E+00+
*       9.9999998128E+00               0
GRID*               3953               0-6.094846453E+01-7.841400347E-01+
*       6.6666325995E+00               0
GRID*               3954               0-5.729610021E+01-5.543277432E+00+
*       1.3333333333E+01               0
GRID*               3955               0-5.729610021E+01-5.543277432E+00+
*       1.0000000000E+01               0
GRID*               3956               0-5.421629765E+01-5.948522074E+00+
*       1.0000000188E+01               0
GRID*               3957               0-5.729610021E+01-5.543277432E+00+
*       6.6666666667E+00               0
GRID*               3958               0-4.905153547E+017.8414003465E-01+
*       6.6666325995E+00               0
GRID*               3959               0-4.905150440E+017.8390392114E-01+
*       3.3333177351E+00               0
GRID*               3960               0-5.023971970E+013.6522368182E+00+
*       3.3333177496E+00               0
GRID*               3961               0-4.905142084E+017.8326905909E-01+
*       1.3333367420E+01               0
GRID*               3962               0-4.905147786E+017.8370228030E-01+
*       1.0000000188E+01               0
GRID*               3963               0-4.905145199E+017.8350576027E-01+
*       1.6666682239E+01               0
GRID*               3964               0-5.023947527E+013.6519181797E+00+
*       1.6666682275E+01               0
GRID*               3965               0-5.270389963E+015.5432773656E+00+
*       1.6666666667E+01               0
GRID*               3966               0-5.578350566E+015.9485479658E+00+
*       1.6666682239E+01               0
GRID*               3967               0-5.865191814E+014.7605248712E+00+
*       1.6666682275E+01               0
GRID*               3968               0-6.054327774E+012.2961003780E+00+
*       1.6666666667E+01               0
GRID*               3969               0-6.094854801E+01-7.835057603E-01+
*       1.6666682239E+01               0
GRID*               3970               0-5.976052416E+01-3.651918084E+00+
*       1.6666682275E+01               0
GRID*               3971               0-5.729610021E+01-5.543277432E+00+
*       1.6666666667E+01               0
GRID*               3972               0-5.421649417E+01-5.948547943E+00+
*       1.6666682239E+01               0
GRID*               3973               0-5.134808172E+01-4.760524766E+00+
*       1.6666682275E+01               0
GRID*               3974               0-5.134827066E+01-4.760669738E+00+
*       1.3333367405E+01               0
GRID*               3975               0-5.134757370E+01-4.760134964E+00+
*       6.6666325739E+00               0
GRID*               3976               0-5.134792037E+01-4.760400960E+00+
*       9.9999998123E+00               0
GRID*               3977               0-5.134776311E+01-4.760280297E+00+
*       3.3333177496E+00               0
GRID*               3978               0-5.421609601E+01-5.948495531E+00+
*       3.3333177351E+00               0
GRID*               3979               0-5.729610021E+01-5.543277432E+00+
*       3.3333333333E+00               0
GRID*               3980               0-5.976027980E+01-3.652236777E+00+
*       3.3333177496E+00               0
GRID*               3981               0-6.094849560E+01-7.839039211E-01+
*       3.3333177351E+00               0
GRID*               3982               0-6.054327774E+012.2961003780E+00+
*       3.3333333333E+00               0
GRID*               3983               0-5.865223675E+014.7602804028E+00+
*       3.3333177496E+00               0
GRID*               3984               0-5.578390382E+015.9484955538E+00+
*       3.3333177351E+00               0
GRID*               3985               0-5.270389963E+015.5432773656E+00+
*       3.3333333333E+00               0
GRID*               5180               0-2.273986464E+01-4.397897067E+01+
*       6.6666325739E+00               0
GRID*               5181               0-2.828413979E+01-4.168293254E+01+
*       6.6666325994E+00               0
GRID*               5182               0-3.304327761E+01-4.533529631E+01+
*       6.6666666667E+00               0
GRID*               5183               0-3.226013498E+01-5.128382291E+01+
*       6.6666325739E+00               0
GRID*               5184               0-2.671586034E+01-5.357986176E+01+
*       6.6666325995E+00               0
GRID*               5185               0-2.273933010E+01-4.397966781E+01+
*       1.3333367405E+01               0
GRID*               5186               0-2.828326881E+01-4.168281794E+01+
*       1.3333367420E+01               0
GRID*               5187               0-3.304327761E+01-4.533529631E+01+
*       1.3333333333E+01               0
GRID*               5188               0-3.226066975E+01-5.128312594E+01+
*       1.3333367405E+01               0
GRID*               5189               0-2.671673132E+01-5.357997641E+01+
*       1.3333367420E+01               0
GRID*               5190               0-2.273959876E+01-4.397931742E+01+
*       9.9999998123E+00               0
GRID*               5191               0-2.520389926E+01-4.208811956E+01+
*       1.3333333333E+01               0
GRID*               5192               0-2.520389926E+01-4.208811956E+01+
*       1.0000000000E+01               0
GRID*               5193               0-2.828370204E+01-4.168287494E+01+
*       1.0000000187E+01               0
GRID*               5194               0-2.520389926E+01-4.208811956E+01+
*       6.6666666667E+00               0
GRID*               5195               0-3.115172927E+01-4.287072721E+01+
*       1.3333367405E+01               0
GRID*               5196               0-3.115207965E+01-4.287099587E+01+
*       9.9999998123E+00               0
GRID*               5197               0-3.304327761E+01-4.533529631E+01+
*       1.0000000000E+01               0
GRID*               5198               0-3.115242641E+01-4.287126176E+01+
*       6.6666325739E+00               0
GRID*               5199               0-3.344857918E+01-4.841466580E+01+
*       1.3333367420E+01               0
GRID*               5200               0-3.344852215E+01-4.841509902E+01+
*       1.0000000188E+01               0
GRID*               5201               0-3.226040097E+01-5.128347624E+01+
*       9.9999998120E+00               0
GRID*               5202               0-3.344846453E+01-4.841553677E+01+
*       6.6666325995E+00               0
GRID*               5203               0-2.979610074E+01-5.317467494E+01+
*       1.3333333333E+01               0
GRID*               5204               0-2.979610074E+01-5.317467494E+01+
*       1.0000000000E+01               0
GRID*               5205               0-2.671629810E+01-5.357991938E+01+
*       1.0000000188E+01               0
GRID*               5206               0-2.979610074E+01-5.317467494E+01+
*       6.6666666667E+00               0
GRID*               5207               0-2.155153552E+01-4.684725737E+01+
*       6.6666325995E+00               0
GRID*               5208               0-2.155150444E+01-4.684749349E+01+
*       3.3333177351E+00               0
GRID*               5209               0-2.273971937E+01-4.397916013E+01+
*       3.3333177496E+00               0
GRID*               5210               0-2.155142087E+01-4.684812835E+01+
*       1.3333367420E+01               0
GRID*               5211               0-2.155147790E+01-4.684769513E+01+
*       1.0000000188E+01               0
GRID*               5212               0-2.155145203E+01-4.684789165E+01+
*       1.6666682239E+01               0
GRID*               5213               0-2.273947501E+01-4.397947882E+01+
*       1.6666682275E+01               0
GRID*               5214               0-2.520389926E+01-4.208811956E+01+
*       1.6666666667E+01               0
GRID*               5215               0-2.828350551E+01-4.168284908E+01+
*       1.6666682239E+01               0
GRID*               5216               0-3.115191826E+01-4.287087212E+01+
*       1.6666682275E+01               0
GRID*               5217               0-3.304327761E+01-4.533529631E+01+
*       1.6666666667E+01               0
GRID*               5218               0-3.344854802E+01-4.841490250E+01+
*       1.6666682239E+01               0
GRID*               5219               0-3.226052478E+01-5.128331489E+01+
*       1.6666682275E+01               0
GRID*               5220               0-2.979610074E+01-5.317467494E+01+
*       1.6666666667E+01               0
GRID*               5221               0-2.671649462E+01-5.357994525E+01+
*       1.6666682239E+01               0
GRID*               5222               0-2.384808218E+01-5.239192198E+01+
*       1.6666682275E+01               0
GRID*               5223               0-2.384827113E+01-5.239206694E+01+
*       1.3333367405E+01               0
GRID*               5224               0-2.384757413E+01-5.239153222E+01+
*       6.6666325740E+00               0
GRID*               5225               0-2.384792082E+01-5.239179819E+01+
*       9.9999998125E+00               0
GRID*               5226               0-2.384776355E+01-5.239167754E+01+
*       3.3333177496E+00               0
GRID*               5227               0-2.671609646E+01-5.357989284E+01+
*       3.3333177351E+00               0
GRID*               5228               0-2.979610074E+01-5.317467494E+01+
*       3.3333333333E+00               0
GRID*               5229               0-3.226028031E+01-5.128363350E+01+
*       3.3333177496E+00               0
GRID*               5230               0-3.344849561E+01-4.841530066E+01+
*       3.3333177351E+00               0
GRID*               5231               0-3.304327761E+01-4.533529631E+01+
*       3.3333333333E+00               0
GRID*               5232               0-3.115223695E+01-4.287111648E+01+
*       3.3333177496E+00               0
GRID*               5233               0-2.828390367E+01-4.168290147E+01+
*       3.3333177351E+00               0
GRID*               5234               0-2.520389926E+01-4.208811956E+01+
*       3.3333333333E+00               0
GRID*               5235               0-2.273986524E+015.1283823189E+01+
*       6.6666325739E+00               0
GRID*               5236               0-2.828414014E+015.3579861905E+01+
*       6.6666325994E+00               0
GRID*               5237               0-3.304327788E+014.9927497538E+01+
*       6.6666666667E+00               0
GRID*               5238               0-3.226013514E+014.3978970387E+01+
*       6.6666325740E+00               0
GRID*               5239               0-2.671585999E+014.1682932784E+01+
*       6.6666325995E+00               0
GRID*               5240               0-2.273933046E+015.1283126225E+01+
*       1.3333367405E+01               0
GRID*               5241               0-2.828326916E+015.3579976510E+01+
*       1.3333367420E+01               0
GRID*               5242               0-3.304327788E+014.9927497538E+01+
*       1.3333333333E+01               0
GRID*               5243               0-3.226066969E+014.3979667526E+01+
*       1.3333367405E+01               0
GRID*               5244               0-2.671673097E+014.1682818133E+01+
*       1.3333367420E+01               0
GRID*               5245               0-2.273959924E+015.1283476522E+01+
*       9.9999998121E+00               0
GRID*               5246               0-2.520389959E+015.3174675071E+01+
*       1.3333333333E+01               0
GRID*               5247               0-2.520389959E+015.3174675071E+01+
*       1.0000000000E+01               0
GRID*               5248               0-2.828370238E+015.3579919505E+01+
*       1.0000000188E+01               0
GRID*               5249               0-2.520389959E+015.3174675071E+01+
*       6.6666666667E+00               0
GRID*               5250               0-3.115172915E+015.2392066723E+01+
*       1.3333367405E+01               0
GRID*               5251               0-3.115207946E+015.2391797974E+01+
*       9.9999998126E+00               0
GRID*               5252               0-3.304327788E+014.9927497538E+01+
*       1.0000000000E+01               0
GRID*               5253               0-3.115242615E+015.2391532003E+01+
*       6.6666325740E+00               0
GRID*               5254               0-3.344857909E+014.6848127998E+01+
*       1.3333367420E+01               0
GRID*               5255               0-3.344852206E+014.6847694780E+01+
*       1.0000000188E+01               0
GRID*               5256               0-3.226040103E+014.3979317145E+01+
*       9.9999998124E+00               0
GRID*               5257               0-3.344846443E+014.6847257024E+01+
*       6.6666325995E+00               0
GRID*               5258               0-2.979610041E+014.2088119423E+01+
*       1.3333333333E+01               0
GRID*               5259               0-2.979610041E+014.2088119423E+01+
*       1.0000000000E+01               0
GRID*               5260               0-2.671629775E+014.1682875160E+01+
*       1.0000000188E+01               0
GRID*               5261               0-2.979610041E+014.2088119423E+01+
*       6.6666666667E+00               0
GRID*               5262               0-2.155153552E+014.8415537120E+01+
*       6.6666325995E+00               0
GRID*               5263               0-2.155150444E+014.8415301008E+01+
*       3.3333177351E+00               0
GRID*               5264               0-2.273971990E+015.1283633778E+01+
*       3.3333177496E+00               0
GRID*               5265               0-2.155142087E+014.8414666147E+01+
*       1.3333367420E+01               0
GRID*               5266               0-2.155147790E+014.8415099367E+01+
*       1.0000000188E+01               0
GRID*               5267               0-2.155145203E+014.8414902848E+01+
*       1.6666682239E+01               0
GRID*               5268               0-2.273947544E+015.1283315166E+01+
*       1.6666682275E+01               0
GRID*               5269               0-2.520389959E+015.3174675071E+01+
*       1.6666666667E+01               0
GRID*               5270               0-2.828350586E+015.3579945364E+01+
*       1.6666682239E+01               0
GRID*               5271               0-3.115191810E+015.2391921765E+01+
*       1.6666682275E+01               0
GRID*               5272               0-3.304327788E+014.9927497538E+01+
*       1.6666666667E+01               0
GRID*               5273               0-3.344854793E+014.6847891297E+01+
*       1.6666682239E+01               0
GRID*               5274               0-3.226052478E+014.3979478538E+01+
*       1.6666682275E+01               0
GRID*               5275               0-2.979610041E+014.2088119423E+01+
*       1.6666666667E+01               0
GRID*               5276               0-2.671649427E+014.1682849291E+01+
*       1.6666682239E+01               0
GRID*               5277               0-2.384808146E+014.2870872335E+01+
*       1.6666682275E+01               0
GRID*               5278               0-2.384827045E+014.2870727425E+01+
*       1.3333367405E+01               0
GRID*               5279               0-2.384757331E+014.2871261970E+01+
*       6.6666325740E+00               0
GRID*               5280               0-2.384792007E+014.2870996087E+01+
*       9.9999998124E+00               0
GRID*               5281               0-2.384776277E+014.2871116699E+01+
*       3.3333177496E+00               0
GRID*               5282               0-2.671609611E+014.1682901703E+01+
*       3.3333177351E+00               0
GRID*               5283               0-2.979610041E+014.2088119423E+01+
*       3.3333333333E+00               0
GRID*               5284               0-3.226028041E+014.3979159845E+01+
*       3.3333177496E+00               0
GRID*               5285               0-3.344849552E+014.6847493137E+01+
*       3.3333177351E+00               0
GRID*               5286               0-3.304327788E+014.9927497538E+01+
*       3.3333333333E+00               0
GRID*               5287               0-3.115223673E+015.2391677321E+01+
*       3.3333177496E+00               0
GRID*               5288               0-2.828390402E+015.3579892974E+01+
*       3.3333177351E+00               0
GRID*               5289               0-2.520389959E+015.3174675071E+01+
*       3.3333333333E+00               0
GRID*               5909               02.9055080469E+01-5.342637184E+01+
*       1.3333333333E+01               0
GRID*               5910               02.3258154258E+01-5.187483235E+01+
*       1.3333333333E+01               0
GRID*               5911               02.1704444977E+01-4.607848324E+01+
*       1.3333333333E+01               0
GRID*               5912               02.5944919703E+01-4.183642311E+01+
*       1.3333333334E+01               0
GRID*               5913               03.1741846576E+01-4.338796108E+01+
*       1.3333333333E+01               0
GRID*               5914               02.9055080458E+01-5.342637185E+01+
*       6.6666666665E+00               0
GRID*               5915               02.3258154254E+01-5.187483234E+01+
*       6.6666666665E+00               0
GRID*               5916               02.1704444977E+01-4.607848324E+01+
*       6.6666666667E+00               0
GRID*               5917               02.5944919693E+01-4.183642312E+01+
*       6.6666666673E+00               0
GRID*               5918               03.1741846580E+01-4.338796108E+01+
*       6.6666666665E+00               0
GRID*               5919               02.9055080463E+01-5.342637185E+01+
*       9.9999999996E+00               0
GRID*               5920               02.5947086205E+01-5.342695233E+01+
*       6.6666666667E+00               0
GRID*               5921               02.5947086205E+01-5.342695233E+01+
*       1.0000000000E+01               0
GRID*               5922               02.3258154256E+01-5.187483234E+01+
*       9.9999999996E+00               0
GRID*               5923               02.5947086205E+01-5.342695233E+01+
*       1.3333333333E+01               0
GRID*               5924               02.1705025836E+01-4.918647743E+01+
*       6.6666666673E+00               0
GRID*               5925               02.1705025834E+01-4.918647742E+01+
*       1.0000000000E+01               0
GRID*               5926               02.1704444977E+01-4.607848324E+01+
*       1.0000000000E+01               0
GRID*               5927               02.1705025833E+01-4.918647741E+01+
*       1.3333333334E+01               0
GRID*               5928               02.3256563987E+01-4.338955051E+01+
*       6.6666666665E+00               0
GRID*               5929               02.3256563986E+01-4.338955051E+01+
*       9.9999999996E+00               0
GRID*               5930               02.5944919698E+01-4.183642312E+01+
*       1.0000000000E+01               0
GRID*               5931               02.3256563984E+01-4.338955052E+01+
*       1.3333333333E+01               0
GRID*               5932               02.9052913953E+01-4.183584170E+01+
*       6.6666666667E+00               0
GRID*               5933               02.9052913953E+01-4.183584170E+01+
*       1.0000000000E+01               0
GRID*               5934               03.1741846578E+01-4.338796108E+01+
*       9.9999999996E+00               0
GRID*               5935               02.9052913953E+01-4.183584170E+01+
*       1.3333333333E+01               0
GRID*               5936               03.1743435182E+01-5.187324290E+01+
*       1.3333333333E+01               0
GRID*               5937               03.1743435184E+01-5.187324290E+01+
*       1.6666666666E+01               0
GRID*               5938               02.9055080474E+01-5.342637184E+01+
*       1.6666666666E+01               0
GRID*               5939               03.1743435178E+01-5.187324291E+01+
*       6.6666666665E+00               0
GRID*               5940               03.1743435180E+01-5.187324291E+01+
*       9.9999999996E+00               0
GRID*               5941               03.1743435177E+01-5.187324291E+01+
*       3.3333333333E+00               0
GRID*               5942               02.9055080455E+01-5.342637185E+01+
*       3.3333333333E+00               0
GRID*               5943               02.5947086205E+01-5.342695233E+01+
*       3.3333333333E+00               0
GRID*               5944               02.3258154253E+01-5.187483234E+01+
*       3.3333333333E+00               0
GRID*               5945               02.1705025838E+01-4.918647743E+01+
*       3.3333333342E+00               0
GRID*               5946               02.1704444977E+01-4.607848324E+01+
*       3.3333333333E+00               0
GRID*               5947               02.3256563989E+01-4.338955051E+01+
*       3.3333333333E+00               0
GRID*               5948               02.5944919687E+01-4.183642312E+01+
*       3.3333333342E+00               0
GRID*               5949               02.9052913953E+01-4.183584170E+01+
*       3.3333333333E+00               0
GRID*               5950               03.1741846582E+01-4.338796108E+01+
*       3.3333333333E+00               0
GRID*               5951               03.3294974071E+01-4.607631672E+01+
*       3.3333333342E+00               0
GRID*               5952               03.3294974072E+01-4.607631673E+01+
*       6.6666666673E+00               0
GRID*               5953               03.3294974076E+01-4.607631674E+01+
*       1.3333333334E+01               0
GRID*               5954               03.3294974074E+01-4.607631673E+01+
*       1.0000000000E+01               0
GRID*               5955               03.3294974077E+01-4.607631674E+01+
*       1.6666666667E+01               0
GRID*               5956               03.1741846573E+01-4.338796107E+01+
*       1.6666666666E+01               0
GRID*               5957               02.9052913953E+01-4.183584170E+01+
*       1.6666666667E+01               0
GRID*               5958               02.5944919707E+01-4.183642311E+01+
*       1.6666666667E+01               0
GRID*               5959               02.3256563982E+01-4.338955052E+01+
*       1.6666666666E+01               0
GRID*               5960               02.1704444976E+01-4.607848324E+01+
*       1.6666666667E+01               0
GRID*               5961               02.1705025831E+01-4.918647741E+01+
*       1.6666666667E+01               0
GRID*               5962               02.3258154261E+01-5.187483235E+01+
*       1.6666666666E+01               0
GRID*               5963               02.5947086205E+01-5.342695233E+01+
*       1.6666666667E+01               0
GRID*               5964               02.9055080809E+014.1836422741E+01+
*       1.3333333333E+01               0
GRID*               5965               02.3258153674E+014.3387960827E+01+
*       1.3333333333E+01               0
GRID*               5966               02.1704444794E+014.9184310572E+01+
*       1.3333333333E+01               0
GRID*               5967               02.5944919363E+015.3426371289E+01+
*       1.3333333334E+01               0
GRID*               5968               03.1741845492E+015.1874832595E+01+
*       1.3333333333E+01               0
GRID*               5969               02.9055080798E+014.1836422737E+01+
*       6.6666666665E+00               0
GRID*               5970               02.3258153669E+014.3387960830E+01+
*       6.6666666665E+00               0
GRID*               5971               02.1704444794E+014.9184310572E+01+
*       6.6666666667E+00               0
GRID*               5972               02.5944919352E+015.3426371285E+01+
*       6.6666666673E+00               0
GRID*               5973               03.1741845496E+015.1874832592E+01+
*       6.6666666665E+00               0
GRID*               5974               02.9055080803E+014.1836422739E+01+
*       9.9999999996E+00               0
GRID*               5975               02.5947086546E+014.1835842076E+01+
*       6.6666666667E+00               0
GRID*               5976               02.5947086546E+014.1835842076E+01+
*       1.0000000000E+01               0
GRID*               5977               02.3258153671E+014.3387960829E+01+
*       9.9999999996E+00               0
GRID*               5978               02.5947086545E+014.1835842076E+01+
*       1.3333333333E+01               0
GRID*               5979               02.1705026015E+014.6076316399E+01+
*       6.6666666665E+00               0
GRID*               5980               02.1705026017E+014.6076316394E+01+
*       9.9999999996E+00               0
GRID*               5981               02.1704444794E+014.9184310572E+01+
*       1.0000000000E+01               0
GRID*               5982               02.1705026019E+014.6076316389E+01+
*       1.3333333333E+01               0
GRID*               5983               02.3256564572E+015.1873242659E+01+
*       6.6666666665E+00               0
GRID*               5984               02.3256564571E+015.1873242657E+01+
*       9.9999999996E+00               0
GRID*               5985               02.5944919358E+015.3426371287E+01+
*       1.0000000000E+01               0
GRID*               5986               02.3824682078E+015.1305340930E+01+
*       1.3333333333E+01               0
GRID*               5987               02.9052913612E+015.3426952888E+01+
*       6.6666666667E+00               0
GRID*               5988               02.9052913612E+015.3426952888E+01+
*       1.0000000000E+01               0
GRID*               5989               03.1741845494E+015.1874832593E+01+
*       9.9999999996E+00               0
GRID*               5990               02.9052913612E+015.3426952888E+01+
*       1.3333333333E+01               0
GRID*               5991               03.1743436266E+014.3389550766E+01+
*       1.3333333333E+01               0
GRID*               5992               03.1743436267E+014.3389550769E+01+
*       1.6666666666E+01               0
GRID*               5993               02.9055080814E+014.1836422743E+01+
*       1.6666666666E+01               0
GRID*               5994               03.1743436262E+014.3389550762E+01+
*       6.6666666665E+00               0
GRID*               5995               03.1743436264E+014.3389550764E+01+
*       9.9999999996E+00               0
GRID*               5996               03.1743436261E+014.3389550760E+01+
*       3.3333333333E+00               0
GRID*               5997               02.9055080795E+014.1836422736E+01+
*       3.3333333333E+00               0
GRID*               5998               02.5947086546E+014.1835842076E+01+
*       3.3333333333E+00               0
GRID*               5999               02.3258153668E+014.3387960831E+01+
*       3.3333333333E+00               0
GRID*               6000               02.1705026014E+014.6076316403E+01+
*       3.3333333333E+00               0
GRID*               6001               02.1704444794E+014.9184310572E+01+
*       3.3333333333E+00               0
GRID*               6002               02.3256564573E+015.1873242661E+01+
*       3.3333333333E+00               0
GRID*               6003               02.5944919347E+015.3426371283E+01+
*       3.3333333342E+00               0
GRID*               6004               02.9052913612E+015.3426952888E+01+
*       3.3333333333E+00               0
GRID*               6005               03.1741845498E+015.1874832591E+01+
*       3.3333333333E+00               0
GRID*               6006               03.3294974071E+014.9186477771E+01+
*       3.3333333342E+00               0
GRID*               6007               03.3294974072E+014.9186477766E+01+
*       6.6666666673E+00               0
GRID*               6008               03.3294974076E+014.9186477755E+01+
*       1.3333333334E+01               0
GRID*               6009               03.3294974074E+014.9186477760E+01+
*       1.0000000000E+01               0
GRID*               6010               03.3294974077E+014.9186477752E+01+
*       1.6666666667E+01               0
GRID*               6011               03.1741845489E+015.1874832597E+01+
*       1.6666666666E+01               0
GRID*               6012               02.9052913612E+015.3426952888E+01+
*       1.6666666667E+01               0
GRID*               6013               02.5944919366E+015.3426371290E+01+
*       1.6666666667E+01               0
GRID*               6014               02.3824682078E+015.1305340930E+01+
*       1.6666666667E+01               0
GRID*               6015               02.1704444794E+014.9184310572E+01+
*       1.6666666667E+01               0
GRID*               6016               02.1705026021E+014.6076316383E+01+
*       1.6666666666E+01               0
GRID*               6017               02.3258153676E+014.3387960825E+01+
*       1.6666666666E+01               0
GRID*               6018               02.5947086545E+014.1835842076E+01+
*       1.6666666667E+01               0
GRID*               6999               05.9760134526E+013.6524262348E+00+
*       6.6666325740E+00               0
GRID*               7000               05.4215859895E+015.9484644504E+00+
*       6.6666325995E+00               0
GRID*               7001               04.9456722260E+012.2961003780E+00+
*       6.6666666667E+00               0
GRID*               7002               05.0239865017E+01-3.652426244E+00+
*       6.6666325740E+00               0
GRID*               7003               05.5784139934E+01-5.948464473E+00+
*       6.6666325995E+00               0
GRID*               7004               05.9760669072E+013.6517290955E+00+
*       1.3333367405E+01               0
GRID*               7005               05.4216730868E+015.9485791014E+00+
*       1.3333367420E+01               0
GRID*               7006               04.9456722260E+012.2961003780E+00+
*       1.3333333333E+01               0
GRID*               7007               05.0239330318E+01-3.651729223E+00+
*       1.3333367405E+01               0
GRID*               7008               05.5783268960E+01-5.948579124E+00+
*       1.3333367420E+01               0
GRID*               7009               05.9760400412E+013.6520794737E+00+
*       9.9999998128E+00               0
GRID*               7010               05.7296100211E+015.5432774317E+00+
*       1.3333333333E+01               0
GRID*               7011               05.7296100211E+015.5432774317E+00+
*       1.0000000000E+01               0
GRID*               7012               05.4216297649E+015.9485220744E+00+
*       1.0000000188E+01               0
GRID*               7013               05.7296100211E+015.5432774317E+00+
*       6.6666666667E+00               0
GRID*               7014               05.1348270664E+014.7606697382E+00+
*       1.3333367405E+01               0
GRID*               7015               05.1347920369E+014.7604009601E+00+
*       9.9999998123E+00               0
GRID*               7016               04.9456722260E+012.2961003780E+00+
*       1.0000000000E+01               0
GRID*               7017               05.1347573700E+014.7601349641E+00+
*       6.6666325739E+00               0
GRID*               7018               04.9051420838E+01-7.832690591E-01+
*       1.3333367420E+01               0
GRID*               7019               04.9051477858E+01-7.837022803E-01+
*       1.0000000188E+01               0
GRID*               7020               05.0239599057E+01-3.652079545E+00+
*       9.9999998125E+00               0
GRID*               7021               04.9051535474E+01-7.841400346E-01+
*       6.6666325995E+00               0
GRID*               7022               05.2703899630E+01-5.543277366E+00+
*       1.3333333333E+01               0
GRID*               7023               05.2703899630E+01-5.543277366E+00+
*       1.0000000000E+01               0
GRID*               7024               05.5783702180E+01-5.948522097E+00+
*       1.0000000188E+01               0
GRID*               7025               05.2703899630E+01-5.543277366E+00+
*       6.6666666667E+00               0
GRID*               7026               06.0948464526E+017.8414003465E-01+
*       6.6666325995E+00               0
GRID*               7027               06.0948495603E+017.8390392114E-01+
*       3.3333177351E+00               0
GRID*               7028               05.9760279797E+013.6522367769E+00+
*       3.3333177496E+00               0
GRID*               7029               06.0948579162E+017.8326905909E-01+
*       1.3333367420E+01               0
GRID*               7030               06.0948522142E+017.8370228030E-01+
*       1.0000000188E+01               0
GRID*               7031               06.0948548008E+017.8350576027E-01+
*       1.6666682239E+01               0
GRID*               7032               05.9760524161E+013.6519180844E+00+
*       1.6666682275E+01               0
GRID*               7033               05.7296100211E+015.5432774317E+00+
*       1.6666666667E+01               0
GRID*               7034               05.4216494167E+015.9485479432E+00+
*       1.6666682239E+01               0
GRID*               7035               05.1348081723E+014.7605247657E+00+
*       1.6666682275E+01               0
GRID*               7036               04.9456722260E+012.2961003780E+00+
*       1.6666666667E+01               0
GRID*               7037               04.9051451992E+01-7.835057603E-01+
*       1.6666682239E+01               0
GRID*               7038               05.0239475270E+01-3.651918180E+00+
*       1.6666682275E+01               0
GRID*               7039               05.2703899630E+01-5.543277366E+00+
*       1.6666666667E+01               0
GRID*               7040               05.5783505661E+01-5.948547966E+00+
*       1.6666682239E+01               0
GRID*               7041               05.8651918139E+01-4.760524871E+00+
*       1.6666682275E+01               0
GRID*               7042               05.8651729198E+01-4.760669844E+00+
*       1.3333367405E+01               0
GRID*               7043               05.8652426163E+01-4.760135070E+00+
*       6.6666325739E+00               0
GRID*               7044               05.8652079494E+01-4.760401065E+00+
*       9.9999998122E+00               0
GRID*               7045               05.8652236752E+01-4.760280403E+00+
*       3.3333177496E+00               0
GRID*               7046               05.5783903821E+01-5.948495554E+00+
*       3.3333177351E+00               0
GRID*               7047               05.2703899630E+01-5.543277366E+00+
*       3.3333333333E+00               0
GRID*               7048               05.0239719704E+01-3.652236818E+00+
*       3.3333177496E+00               0
GRID*               7049               04.9051504397E+01-7.839039211E-01+
*       3.3333177351E+00               0
GRID*               7050               04.9456722260E+012.2961003780E+00+
*       3.3333333333E+00               0
GRID*               7051               05.1347763111E+014.7602802974E+00+
*       3.3333177496E+00               0
GRID*               7052               05.4216096007E+015.9484955312E+00+
*       3.3333177351E+00               0
GRID*               7053               05.7296100211E+015.5432774317E+00+
*       3.3333333333E+00               0
GRID*                  1               02.1979481336E+01-2.566656591E+00+
*       5.6389345123E+00               0
GRID*                  2               01.7619302078E+01-9.079757353E+00+
*       1.3500027579E+01               0
GRID*                  3               02.2773238600E+018.3749777584E-01+
*       1.3428947039E+01               0
GRID*                  4               01.8902355875E+013.4697475159E+00+
*       5.1902444789E-01               0
GRID*                  5               02.1315743965E+01-7.503393919E+00+
*       -5.218520669E-01               0
GRID*                  6               0-2.110809347E+018.3087946974E+00+
*       -3.416481628E+00               0
GRID*                  7               03.4278387903E+01-1.436840876E+01+
*       8.3623756625E+00               0
GRID*                  8               02.9619018301E+01-5.835183650E+00+
*       1.5206654383E+01               0
GRID*                  9               03.1535646114E+01-2.564213605E+00+
*       3.5473879281E+00               0
GRID*                 10               02.1172980138E+016.1599338546E+00+
*       8.7623742057E+00               0
GRID*                 11               02.8810110786E+014.3795517183E+00+
*       2.6762879214E+00               0
GRID*                 12               0-1.997090392E+012.5701701173E+00+
*       6.1444208864E-01               0
GRID*                 13               0-2.961766963E+01-1.274118062E+00+
*       3.2301016037E+00               0
GRID*                 14               0-2.283245433E+01-2.862620060E+00+
*       -5.227143706E+00               0
GRID*                 15               0-2.101703651E+01-6.199716485E+00+
*       8.6090055759E-01               0
GRID*                 16               0-2.088731950E+014.2537546795E+00+
*       1.2579086894E+01               0
GRID*                 17               0-1.750334097E+011.0201552735E+01+
*       6.0696673548E+00               0
GRID*                 18               0-2.858485661E+017.6164966414E+00+
*       4.8276941475E+00               0
GRID*                 19               0-3.025582311E+013.0278463820E+00+
*       1.5447761829E+01               0
GRID*                 20               0-2.049869212E+01-3.919714691E+00+
*       1.1775803911E+01               0
GRID*                 21               01.4018042890E+01-1.391316575E+01+
*       4.8137020230E+00               0
GRID*                 22               06.2817093470E+011.4408298148E+01+
*       1.4945225897E+01               0
GRID*                 23               07.5952776281E+011.3966064874E+01+
*       1.0407642705E+01               0
GRID*                 24               07.0125511483E+012.3491011831E+01+
*       1.0165339996E+01               0
GRID*                 25               06.6267500228E+011.0705047341E+01+
*       7.6593370728E+00               0
GRID*                 26               01.2588789866E+011.6253895646E+01+
*       1.7441782518E+01               0
GRID*                 27               05.5265997287E+011.9130519503E+01+
*       1.0539865725E+01               0
GRID*                 28               06.0432887999E+012.5764342165E+01+
*       1.0063906153E+01               0
GRID*                 29               05.8417124425E+01-2.285575948E+01+
*       8.3805779613E+00               0
GRID*                 30               05.9938350503E+01-3.168540621E+01+
*       9.9034298900E+00               0
GRID*                 31               06.7633620215E+01-2.534620990E+01+
*       9.8363159794E+00               0
GRID*                 32               04.8117684427E+01-1.973631309E+01+
*       1.2046414529E+01               0
GRID*                 33               05.8087794408E+01-1.041535441E+01+
*       6.5428745085E+00               0
GRID*                 34               04.8452324871E+01-3.155322457E+01+
*       9.8267951566E+00               0
GRID*                 35               0-6.016696132E+014.4823970042E+01+
*       1.0541076751E+01               0
GRID*                 36               0-1.549208782E+017.7267353157E+01+
*       1.1666742220E+01               0
GRID*                 37               0-7.260706833E+006.9701597211E+01+
*       9.4106299007E+00               0
GRID*                 38               07.0762472359E+001.8738751653E+01+
*       1.9399859456E+01               0
GRID*                 39               0-5.041166341E+015.5363949517E+01+
*       9.4642446588E+00               0
GRID*                 40               0-1.708580217E+016.7706274637E+01+
*       9.7920186034E+00               0
GRID*                 41               0-2.717215105E+016.7177454078E+01+
*       9.1142978334E+00               0
GRID*                 42               0-1.977468214E+015.9009348015E+01+
*       9.5243088175E+00               0
GRID*                 43               0-9.766653818E+006.0175742500E+01+
*       9.7490620692E+00               0
GRID*                 44               0-2.600264897E+016.0492285144E+01+
*       1.4293565011E+01               0
GRID*                 45               04.0752117814E+01-2.570914851E+01+
*       1.0700237821E+01               0
GRID*                 46               03.3004364335E+01-3.340914880E+01+
*       9.1431067192E+00               0
GRID*                 47               04.0414886481E+01-3.994692496E+01+
*       1.1804236463E+01               0
GRID*                 48               0-1.121874641E+01-3.081876882E+01+
*       1.4977855100E+01               0
GRID*                 49               0-5.976866232E+00-2.048912138E+01+
*       1.5455058221E+01               0
GRID*                 50               0-3.692977247E+00-2.246678579E+01+
*       2.3088547232E+01               0
GRID*                 51               0-3.003691973E+00-3.002839838E+01+
*       1.6619321876E+01               0
GRID*                 52               0-5.700173916E+013.5051030688E+01+
*       1.0740228561E+01               0
GRID*                 53               0-4.369382426E+014.8344514417E+01+
*       8.9539970977E+00               0
GRID*                 54               0-2.059303665E+01-3.614956167E+01+
*       1.0337486238E+01               0
GRID*                 55               0-1.446366246E+01-4.213276529E+01+
*       7.6650964546E+00               0
GRID*                 56               02.5326955062E+01-5.577462403E+01+
*       1.0296267715E+01               0
GRID*                 57               0-6.050588416E+01-9.082004203E+00+
*       1.1353174989E+01               0
GRID*                 58               0-5.579746021E+01-1.299933796E+01+
*       9.2308511172E+00               0
GRID*                 59               0-6.827873642E+01-9.044175830E+00+
*       1.4058247799E+01               0
GRID*                 60               0-6.762001264E+01-7.450082203E+00+
*       6.4745402212E+00               0
GRID*                 61               0-6.166464915E+01-1.878574743E+01+
*       1.0194516826E+01               0
GRID*                 62               04.3474327485E+01-5.027795613E+01+
*       9.8883017572E+00               0
GRID*                 63               03.6614848484E+01-4.432918264E+01+
*       3.9399079281E+00               0
GRID*                 64               0-7.412006763E+01-1.409594421E+01+
*       1.0435538725E+01               0
GRID*                 65               0-2.572448252E+01-2.834631822E+01+
*       8.0268483453E+00               0
GRID*                 66               0-2.973537153E+01-3.553602848E+01+
*       1.0266023184E+01               0
GRID*                 67               0-3.421780858E+01-2.765954917E+01+
*       1.1465380569E+01               0
GRID*                 68               0-3.086550794E+01-1.876208699E+01+
*       1.0018422071E+01               0
GRID*                 69               0-2.891139988E+01-6.069260637E+01+
*       1.5233876937E+01               0
GRID*                 70               0-3.538453249E+01-5.940426397E+01+
*       9.3346135969E+00               0
GRID*                 71               0-2.254640976E+01-6.879786672E+01+
*       1.3639691488E+01               0
GRID*                 72               0-1.924050351E+01-5.945186090E+01+
*       8.8903922853E+00               0
GRID*                 73               0-3.162067211E+01-6.043890413E+01+
*       4.6344114341E+00               0
GRID*                 74               0-2.148683786E+011.9671364587E+01+
*       1.6548249254E+01               0
GRID*                 75               0-1.447929824E+011.7471294344E+01+
*       2.4515164839E+01               0
GRID*                 76               0-1.693249295E+011.0201605517E+01+
*       1.9413679506E+01               0
GRID*                 77               0-1.183331941E+011.7563072590E+01+
*       8.4110951465E+00               0
GRID*                 78               0-1.273390019E+011.4768643267E+01+
*       1.5073102866E+01               0
GRID*                 79               0-9.882230775E+001.8803799718E+01+
*       1.9285064048E+01               0
GRID*                 80               02.3611576850E+01-5.611138020E+01+
*       1.5603394747E+01               0
GRID*                 81               01.7876641461E+01-6.071435632E+01+
*       1.0459562095E+01               0
GRID*                 82               02.7459092555E+00-1.892266556E+01+
*       1.9456256464E+01               0
GRID*                 83               0-2.434986304E+01-1.727202815E+01+
*       1.6048563417E+01               0
GRID*                 84               0-2.855170012E+01-1.137414378E+01+
*       1.5234887393E+01               0
GRID*                 85               0-1.896211776E+01-1.147586519E+01+
*       2.4329760935E+01               0
GRID*                 86               0-1.622759489E+01-1.052606753E+01+
*       1.2538509346E+01               0
GRID*                 87               0-1.844330112E+01-2.413428469E+01+
*       1.6754068616E+01               0
GRID*                 88               0-1.512870430E+01-1.685603297E+01+
*       1.5406792711E+01               0
GRID*                 89               0-1.254459435E+01-1.822260847E+01+
*       2.4100181358E+01               0
GRID*                 90               01.6104763145E+01-1.363622507E+01+
*       -2.408917789E+00               0
GRID*                 91               09.9957624136E+00-1.863746273E+01+
*       -3.891036933E+00               0
GRID*                 92               02.4874385147E+01-1.533213239E+01+
*       2.4240595336E+00               0
GRID*                 93               05.3804924220E-012.9517222329E+01+
*       1.3861285722E+01               0
GRID*                 94               06.2334961190E+002.2353072722E+01+
*       2.4944485576E+01               0
GRID*                 95               0-4.427636762E+001.9328937623E+01+
*       2.3240395415E+01               0
GRID*                 96               01.0652042579E+012.8313789805E+01+
*       1.8174815587E+01               0
GRID*                 97               09.5104434569E+002.0109323239E+01+
*       1.0063802368E+01               0
GRID*                 98               02.5838933428E+002.0865892100E+01+
*       1.0222750194E+01               0
GRID*                 99               01.5106612655E+003.0880746899E+01+
*       4.3556764624E+00               0
GRID*                100               0-4.228724636E-014.4721234675E+01+
*       9.8225289989E+00               0
GRID*                101               0-7.733472115E+003.0822460349E+01+
*       1.6196966108E+01               0
GRID*                102               08.7056047642E+002.9678057300E+01+
*       8.4671603910E+00               0
GRID*                103               0-5.508023937E+002.1184402555E+01+
*       5.8866888126E+00               0
GRID*                104               0-3.865931669E+002.1438231805E+01+
*       1.4758270611E+01               0
GRID*                105               02.0841338720E+013.3512947636E+01+
*       1.0365928374E+01               0
GRID*                106               01.7395088814E+012.3782950534E+01+
*       1.6143174217E+01               0
GRID*                107               0-4.408408910E+013.2574787893E+01+
*       7.4727429487E+00               0
GRID*                108               0-2.783352793E+011.3048894384E+01+
*       1.7035424074E+01               0
GRID*                109               0-2.543037199E+01-4.392796338E+00+
*       2.0400677796E+01               0
GRID*                110               0-2.209399957E+015.2342993112E+00+
*       2.3922567954E+01               0
GRID*                111               04.3562860584E+012.5775296359E+01+
*       8.3976699891E+00               0
GRID*                112               04.0050839001E+011.6058616480E+01+
*       7.9399265995E+00               0
GRID*                113               08.9487084883E+00-1.883606098E+01+
*       2.0119197632E+01               0
GRID*                114               07.1377824767E+00-1.832716318E+01+
*       2.5718236275E+01               0
GRID*                115               01.5551178304E+01-1.781659958E+01+
*       2.0100803020E+01               0
GRID*                116               04.9605623621E+00-2.962501057E+01+
*       1.8124709545E+01               0
GRID*                117               01.1016998854E+01-1.917589432E+01+
*       1.1319285603E+01               0
GRID*                118               05.5577336619E+002.2108283175E+01+
*       3.5261549606E+00               0
GRID*                119               01.2159779296E+011.8398023715E+01+
*       2.7730567021E+00               0
GRID*                120               01.7880833611E+01-2.333241165E+01+
*       1.7934464514E+01               0
GRID*                121               02.4268129096E+01-1.623787774E+01+
*       1.5813630065E+01               0
GRID*                122               02.5558180567E+01-2.454596850E+01+
*       1.1592719904E+01               0
GRID*                123               02.4893240202E+01-3.381619934E+01+
*       9.7928698788E+00               0
GRID*                124               05.3022673379E+015.5513341466E+01+
*       1.1344146290E+01               0
GRID*                125               05.5530617130E+014.4136806826E+01+
*       9.9032249609E+00               0
GRID*                126               04.5762064700E+014.5227744582E+01+
*       1.0173279484E+01               0
GRID*                127               03.8920806485E+015.4498690321E+01+
*       1.3102572625E+01               0
GRID*                128               0-3.924104172E+016.8110396899E+01+
*       1.1036743271E+01               0
GRID*                129               0-4.228356360E+015.7251829163E+01+
*       8.3176780522E+00               0
GRID*                130               0-3.463868212E+015.8752906652E+01+
*       9.3529786930E+00               0
GRID*                131               02.8451156495E+013.4229107162E+01+
*       9.1068352865E+00               0
GRID*                132               01.5461469876E+014.5068050771E+01+
*       7.0666993696E+00               0
GRID*                133               02.6790388433E+011.6905564454E+01+
*       1.6378094083E+01               0
GRID*                134               02.4064360658E+011.6858686726E+01+
*       3.0263699557E+00               0
GRID*                135               0-1.817173171E+013.5191785397E+01+
*       9.7142043016E+00               0
GRID*                136               0-5.866070688E+002.8383522720E+01+
*       2.5753272630E+00               0
GRID*                137               0-1.389254805E+012.6900547855E+01+
*       1.5509834596E+01               0
GRID*                138               0-2.517263652E+013.1793535646E+01+
*       9.2934466397E+00               0
GRID*                139               0-1.640856588E+012.5356513237E+01+
*       4.4726622992E+00               0
GRID*                140               0-1.389018954E+014.3985105703E+01+
*       9.5142485738E+00               0
GRID*                141               0-5.597005148E+00-2.913000018E+01+
*       4.4080204826E+00               0
GRID*                142               0-2.461031800E+00-3.692671985E+01+
*       8.4180831207E+00               0
GRID*                143               0-1.019919126E+01-1.756073150E+01+
*       9.4676876963E+00               0
GRID*                144               0-1.531062009E+01-2.596517499E+01+
*       5.1199709159E+00               0
GRID*                145               0-7.756495228E+005.0959349533E+01+
*       9.6395533754E+00               0
GRID*                146               06.1428845747E+004.1395273997E+01+
*       7.6426034063E+00               0
GRID*                147               01.6512827473E+005.8256619309E+01+
*       1.0161064853E+01               0
GRID*                148               0-3.924626649E+01-4.824704377E+01+
*       6.3761152009E+00               0
GRID*                149               0-4.268984657E+01-4.251849166E+01+
*       1.0177254890E+01               0
GRID*                150               01.2737004243E+015.0440231757E+01+
*       9.6622203356E+00               0
GRID*                151               01.8312152757E+015.5101206398E+01+
*       9.1927414774E+00               0
GRID*                152               01.0001681938E+016.5374471122E+01+
*       9.1561742637E+00               0
GRID*                153               0-3.300406921E+012.5828212869E+01+
*       1.1147729467E+01               0
GRID*                154               0-3.768048448E+011.3372744786E+01+
*       8.9436224656E+00               0
GRID*                155               0-2.417149491E+011.7501954078E+01+
*       4.0851355704E+00               0
GRID*                156               0-3.262636104E+013.6694081532E+01+
*       7.8654519236E+00               0
GRID*                157               0-4.249452061E+012.1513483195E+01+
*       1.1563402045E+01               0
GRID*                158               0-5.657338312E+012.3972860715E+01+
*       9.8073788031E+00               0
GRID*                159               06.3932769456E+014.3921458751E+01+
*       9.1061674442E+00               0
GRID*                160               05.5312709012E+013.1960947754E+01+
*       1.2881056128E+01               0
GRID*                161               06.7163626314E+013.2508280262E+01+
*       1.0125264430E+01               0
GRID*                162               0-7.023659600E+01-2.258344874E+01+
*       9.8327763704E+00               0
GRID*                163               0-6.481220847E+01-3.143577408E+01+
*       8.1142763584E+00               0
GRID*                164               0-6.884854256E-017.4035308992E+01+
*       8.2518899447E+00               0
GRID*                165               0-6.521992469E+001.9993616371E+01+
*       -2.872741175E+00               0
GRID*                166               0-1.403850989E+011.6381576305E+01+
*       -1.232212960E+00               0
GRID*                167               0-1.195573857E+002.2927772064E+01+
*       -3.293619454E+00               0
GRID*                168               04.1411632755E+01-3.189721733E+00+
*       1.1290024124E+01               0
GRID*                169               01.5192719002E+01-2.666247235E+01+
*       5.1906843812E+00               0
GRID*                170               04.5099720957E+01-1.099028046E+01+
*       8.0043490468E+00               0
GRID*                171               0-5.034383691E+01-1.636793304E+01+
*       1.0257704099E+01               0
GRID*                172               0-4.176099316E+01-2.004683051E+01+
*       1.0046629106E+01               0
GRID*                173               0-4.711852145E+01-2.684690893E+01+
*       1.1783534087E+01               0
GRID*                174               0-4.493785272E+01-5.922940249E+01+
*       1.0676805878E+01               0
GRID*                175               02.4213608238E+00-2.312417343E+01+
*       -5.198383347E+00               0
GRID*                176               05.0704353473E+00-1.972451153E+01+
*       6.9471432295E+00               0
GRID*                177               0-4.305111218E+00-2.035441772E+01+
*       -7.039351261E-01               0
GRID*                178               0-5.611265776E+01-2.594848727E+01+
*       9.8794164705E+00               0
GRID*                179               0-6.196681529E+01-3.938477930E+01+
*       9.7152978655E+00               0
GRID*                180               0-4.877681995E+011.3783666528E+01+
*       8.9646151621E+00               0
GRID*                181               0-5.724681563E+011.4784900250E+01+
*       1.0169276106E+01               0
GRID*                182               0-4.130530315E+017.0337879430E+00+
*       1.0709710524E+01               0
GRID*                183               03.0248379843E+01-6.857108087E+01+
*       9.9597445854E+00               0
GRID*                184               02.9750115975E+01-6.084796104E+01+
*       1.0497376699E+01               0
GRID*                185               02.1105468934E+01-7.021795726E+01+
*       9.9461323813E+00               0
GRID*                186               03.9089436703E+01-6.375391637E+01+
*       1.0165737972E+01               0
GRID*                187               07.7215744705E+01-2.099466621E+01+
*       6.8772850614E+00               0
GRID*                188               07.3623869155E+01-3.662484904E+00+
*       1.1961060351E+01               0
GRID*                189               09.5087243663E+00-7.517056657E+01+
*       9.6936057136E+00               0
GRID*                190               04.7764784409E+011.4031157929E+01+
*       9.9043558016E+00               0
GRID*                191               07.1473954882E+01-3.343969610E+01+
*       1.2219894892E+01               0
GRID*                192               06.1182687097E+01-4.218000813E+01+
*       9.2387382960E+00               0
GRID*                193               04.0859921897E+015.2535453630E+00+
*       7.2940840884E+00               0
GRID*                194               0-1.683702009E+01-1.156305929E+01+
*       -3.028704870E+00               0
GRID*                195               0-1.114040162E+01-1.680673045E+01+
*       1.0557331092E+00               0
GRID*                196               09.8222659068E+007.5091467918E+01+
*       8.7126968974E+00               0
GRID*                197               02.4481705540E+016.1522608565E+01+
*       1.2716978390E+01               0
GRID*                198               01.9033870230E+017.1118045850E+01+
*       1.0389746488E+01               0
GRID*                199               0-7.121295700E+013.6670442568E+01+
*       1.3238422489E+01               0
GRID*                200               0-6.663370064E+012.6999879019E+01+
*       1.0152774879E+01               0
GRID*                201               02.1001745502E+019.9884681996E+00+
*       -3.213542663E+00               0
GRID*                202               01.6059312507E+011.2188261836E+01+
*       7.7527237331E+00               0
GRID*                203               0-7.205464773E+011.6621568246E+01+
*       8.9709122736E+00               0
GRID*                204               0-6.606639263E+011.2100469084E+01+
*       1.0828163507E+01               0
GRID*                205               0-6.676333017E-01-1.969271741E+01+
*       9.6595023262E+00               0
GRID*                206               04.6077948760E+00-2.864444597E+01+
*       6.1714875511E+00               0
GRID*                207               0-7.048461088E+00-6.590762362E+01+
*       1.2859772205E+01               0
GRID*                208               0-2.896136414E+00-7.458656191E+01+
*       1.0021888395E+01               0
GRID*                209               05.8833718057E+00-6.680554433E+01+
*       1.1378123417E+01               0
GRID*                210               0-1.218787974E+01-7.294853632E+01+
*       1.0139609898E+01               0
GRID*                211               02.4198044409E-01-5.661639345E+01+
*       1.0765861140E+01               0
GRID*                212               0-1.032762951E+01-5.488767067E+01+
*       9.6809824201E+00               0
GRID*                213               04.8723352540E+013.5044744276E+01+
*       1.0391779266E+01               0
GRID*                214               0-5.800259587E+01-4.965935365E+01+
*       1.1552979755E+01               0
GRID*                215               0-5.288399058E+01-4.362186364E+01+
*       9.2537086692E+00               0
GRID*                216               04.6392652205E+01-5.835611270E+01+
*       1.0257365622E+01               0
GRID*                217               0-4.791933397E+01-3.615276384E+01+
*       1.0106593510E+01               0
GRID*                218               01.9826178982E+01-1.340145796E+01+
*       2.4188441690E+01               0
GRID*                219               02.1821379042E+01-4.946502734E+00+
*       2.0172675281E+01               0
GRID*                220               05.4080898595E+01-5.177846445E+01+
*       8.7914552517E+00               0
GRID*                221               04.9759197746E+01-4.374979235E+01+
*       1.0292884629E+01               0
GRID*                222               01.5081119697E+01-5.235791874E+01+
*       1.0404192871E+01               0
GRID*                223               03.9989254980E+013.9455378597E+01+
*       7.3164143561E+00               0
GRID*                224               03.7852598354E+01-5.555519136E+01+
*       9.9101877856E+00               0
GRID*                225               0-3.987392510E+01-3.349698254E+01+
*       1.2620761137E+01               0
GRID*                226               0-2.255503512E+01-2.060599058E+01+
*       3.0167741924E+00               0
GRID*                227               0-2.790554817E+01-1.116599376E+01+
*       7.1804445801E+00               0
GRID*                228               0-1.759752017E+01-1.279032665E+01+
*       5.7238552829E+00               0
GRID*                229               0-4.281708161E+01-1.136318253E+01+
*       1.2375542136E+01               0
GRID*                230               08.8434075870E+00-5.972628435E+01+
*       1.1019700198E+01               0
GRID*                231               0-5.038744657E+00-4.588585429E+01+
*       1.0266441453E+01               0
GRID*                232               05.8997625009E+00-5.161396083E+01+
*       1.0321864180E+01               0
GRID*                233               03.4518812260E+00-4.585051444E+01+
*       7.8228556275E+00               0
GRID*                234               02.3651272154E+015.5752438822E+01+
*       1.5870737385E+01               0
GRID*                235               0-2.363187008E+01-7.405795741E+01+
*       8.8243372729E+00               0
GRID*                236               0-1.592013850E+01-4.738491497E+01+
*       1.2274703173E+01               0
GRID*                237               02.6344707462E+017.1472892741E+01+
*       1.0299684852E+01               0
GRID*                238               03.4311429982E+016.2026260870E+01+
*       9.3962399427E+00               0
GRID*                239               0-3.782027909E+01-5.855942125E+00+
*       1.1797627508E+01               0
GRID*                240               0-7.483662691E+012.3104824420E+00+
*       9.7885298418E+00               0
GRID*                241               0-6.728429936E+011.1774352185E+00+
*       8.4847158669E+00               0
GRID*                242               0-7.537206119E+01-6.114466290E+00+
*       9.4959327894E+00               0
GRID*                243               04.3782649374E+016.0957634569E+01+
*       1.2592306492E+01               0
GRID*                244               01.1611263389E+01-4.480110405E+01+
*       1.0987257302E+01               0
GRID*                245               0-3.733469389E+013.8918725095E+01+
*       1.4412774510E+01               0
GRID*                246               01.9635067880E+01-3.975133536E+01+
*       1.2269869249E+01               0
GRID*                247               02.2143283607E+013.6239453287E+00+
*       2.1879730512E+01               0
GRID*                248               01.7698352764E+019.8322640040E+00+
*       1.6295665287E+01               0
GRID*                249               03.0788975162E+013.8196699291E+00+
*       1.6300665166E+01               0
GRID*                250               01.8014124878E+011.3469288476E+01+
*       2.2901888826E+01               0
GRID*                251               0-3.353537080E+01-6.763411555E+01+
*       9.8825634802E+00               0
GRID*                252               01.5719639344E+012.5793053964E+01+
*       4.8600467376E+00               0
GRID*                253               06.4912356192E+01-1.038014960E+01+
*       9.4081550521E+00               0
GRID*                254               06.6068298209E+012.1904738790E+00+
*       8.4069204391E+00               0
GRID*                255               03.1134357131E+015.6440836393E+01+
*       1.1438256124E+01               0
GRID*                256               01.8489740668E+01-1.283328295E+00+
*       9.2480386847E+00               0
GRID*                257               01.6309651039E+01-4.539878677E+00+
*       1.3178585218E+01               0
GRID*                258               01.9799391707E+01-5.823206972E+00+
*       9.5694810456E+00               0
GRID*                259               02.2376359968E+01-8.645794075E-01+
*       9.5339407755E+00               0
GRID*                260               01.8886619300E+014.1874888792E-01+
*       1.3143044948E+01               0
GRID*                261               02.0196270339E+01-4.121129789E+00+
*       1.3464487309E+01               0
GRID*                262               01.8489740668E+01-1.283328295E+00+
*       6.3908958276E+00               0
GRID*                263               01.7918742294E+01-4.153485054E+00+
*       6.3908900185E+00               0
GRID*                264               01.8489740668E+01-1.283328295E+00+
*       3.5337529704E+00               0
GRID*                265               01.6951177937E+011.7348737579E+00+
*       9.7379793823E-01               0
GRID*                266               02.0440918605E+014.5154546254E-01+
*       3.0789794801E+00               0
GRID*                267               02.1647612651E+01-5.035025255E+00+
*       2.5585412227E+00               0
GRID*                268               01.8157871983E+01-3.751696959E+00+
*       4.5335968082E-01               0
GRID*                269               02.0109049920E+01-2.016823202E+00+
*       -1.413809514E-03               0
GRID*                270               0-1.513154695E+018.4437308652E+00+
*       -7.142857535E+00               0
GRID*                271               0-1.748313830E+017.0245228402E+00+
*       -3.851098349E+00               0
GRID*                272               0-1.875650211E+019.7280027223E+00+
*       -6.708240814E+00               0
GRID*                273               0-1.670923523E+014.5538705034E+00+
*       -7.142857535E+00               0
GRID*                274               0-2.033419039E+015.8381423605E+00+
*       -6.708240814E+00               0
GRID*                275               02.8128934620E+01-8.467532673E+00+
*       7.0006550874E+00               0
GRID*                276               02.5799249818E+01-4.200920120E+00+
*       1.0422794447E+01               0
GRID*                277               03.1948703102E+01-1.010179620E+01+
*       1.1784515023E+01               0
GRID*                278               03.2907017009E+01-8.466311180E+00+
*       5.9548817953E+00               0
GRID*                279               02.6757563725E+01-2.565435098E+00+
*       4.5931612202E+00               0
GRID*                280               03.0577332208E+01-4.199698627E+00+
*       9.3770211553E+00               0
GRID*                281               02.7154442357E+01-8.633579144E-01+
*       8.4881674834E+00               0
GRID*                282               02.6196128450E+01-2.498842937E+00+
*       1.4317800711E+01               0
GRID*                283               02.1576230737E+011.7966386319E+00+
*       7.2006543590E+00               0
GRID*                284               02.4991545462E+015.2697427864E+00+
*       5.7193310635E+00               0
GRID*                285               02.5394796061E+019.0644756375E-01+
*       4.1576112168E+00               0
GRID*                286               02.0037668006E+014.8148406852E+00+
*       4.6406993268E+00               0
GRID*                287               02.3856233330E+013.9246496171E+00+
*       1.5976561846E+00               0
GRID*                288               02.5791674693E+012.6085247471E+00+
*       8.0526174800E+00               0
GRID*                289               02.1973109369E+013.4987158152E+00+
*       1.1095660622E+01               0
GRID*                290               02.5839679548E+01-1.742050061E+00+
*       -5.138661419E-01               0
GRID*                291               03.0617761937E+01-1.740828568E+00+
*       -1.559639434E+00               0
GRID*                292               02.5507810862E+01-4.210418725E+00+
*       -3.594259432E+00               0
GRID*                293               02.6425695040E+01-5.033803762E+00+
*       1.5127679306E+00               0
GRID*                294               0-2.479428677E+016.4802602755E-01+
*       1.9222718462E+00               0
GRID*                295               0-2.622506198E+01-2.068369061E+00+
*       -9.985210510E-01               0
GRID*                296               0-2.140167912E+01-1.462249716E-01+
*       -2.306350809E+00               0
GRID*                297               0-2.049397021E+01-1.814773184E+00+
*       7.3767132312E-01               0
GRID*                298               0-2.531735307E+01-3.736917274E+00+
*       2.0455010807E+00               0
GRID*                299               0-2.192474542E+01-4.531168273E+00+
*       -2.183121574E+00               0
GRID*                300               0-2.468175646E+013.4644533933E+00+
*       -3.026112210E+00               0
GRID*                301               0-2.611253166E+017.4805830446E-01+
*       -5.946905107E+00               0
GRID*                302               0-2.950513931E+011.5423093036E+00+
*       -1.718282452E+00               0
GRID*                303               0-1.748537280E+011.2855305437E+00+
*       1.0214655301E+00               0
GRID*                304               0-1.748537280E+011.2852579391E+00+
*       -1.835652078E+00               0
GRID*                305               0-1.800843910E+01-3.099412758E+00+
*       1.1446947646E+00               0
GRID*                306               0-1.800843910E+01-3.099685362E+00+
*       -1.712422843E+00               0
GRID*                307               0-2.042911171E+013.4119623984E+00+
*       6.5967644914E+00               0
GRID*                308               0-1.919533023E+017.2276537074E+00+
*       9.3243771245E+00               0
GRID*                309               0-1.873712244E+016.3858614262E+00+
*       3.3420547217E+00               0
GRID*                310               0-2.427788026E+015.0933333793E+00+
*       2.7210681181E+00               0
GRID*                311               0-2.473608806E+015.9351256605E+00+
*       8.7033905209E+00               0
GRID*                312               0-2.304409879E+018.9090246883E+00+
*       5.4486807511E+00               0
GRID*                313               0-2.525249457E+011.4898183087E+00+
*       7.9045942490E+00               0
GRID*                314               0-2.993674637E+018.7686415989E-01+
*       9.3389317164E+00               0
GRID*                315               0-2.557157131E+013.6408005307E+00+
*       1.4013424362E+01               0
GRID*                316               0-2.910126312E+013.1711892896E+00+
*       4.0288978756E+00               0
GRID*                317               0-2.942033986E+015.3221715117E+00+
*       1.0137727988E+01               0
GRID*                318               0-2.505818087E+01-2.596916377E+00+
*       7.5029527572E+00               0
GRID*                319               0-2.023479802E+01-6.747722870E-01+
*       6.1951229997E+00               0
GRID*                320               0-2.069300581E+011.6701999417E-01+
*       1.2177445402E+01               0
GRID*                321               01.3937886780E+01-9.827083822E+00+
*       3.1210966356E+00               0
GRID*                322               01.3938023071E+01-9.826739632E+00+
*       5.9782737738E+00               0
GRID*                323               01.2312270959E+01-1.225990650E+01+
*       3.1211314269E+00               0
GRID*                324               06.5318765215E+011.5128797962E+01+
*       1.7472612949E+01               0
GRID*                325               07.1886606621E+011.4907681325E+01+
*       1.5203821352E+01               0
GRID*                326               06.9384934875E+011.4187181511E+01+
*       1.2676434301E+01               0
GRID*                327               06.6471302477E+011.8949654989E+01+
*       1.2555282947E+01               0
GRID*                328               06.8972974222E+011.9670154803E+01+
*       1.5082669998E+01               0
GRID*                329               07.3039143882E+011.8728538352E+01+
*       1.0286491350E+01               0
GRID*                330               06.6110133965E+011.0821286331E+01+
*       1.7472612949E+01               0
GRID*                331               07.2677975370E+011.0600169694E+01+
*       1.5203821352E+01               0
GRID*                332               06.7835337344E+018.9696609270E+00+
*       1.3829668536E+01               0
GRID*                333               06.4542296849E+011.2556672745E+01+
*       1.1302281485E+01               0
GRID*                334               07.1110138254E+011.2335556107E+01+
*       9.0334898888E+00               0
GRID*                335               06.3351651446E+018.8020237176E+00+
*       1.7472612949E+01               0
GRID*                336               06.1938522522E+011.2086878522E+01+
*       1.7472612949E+01               0
GRID*                337               01.1152573162E+011.3650007928E+01+
*       2.7142858635E+01               0
GRID*                338               08.7191965934E+001.5275846449E+01+
*       2.7142876953E+01               0
GRID*                339               01.2143686904E+011.6473658331E+01+
*       2.3720891259E+01               0
GRID*                340               01.1597676125E+011.3430245243E+01+
*       2.0863749894E+01               0
GRID*                341               09.1642995560E+001.5056083764E+01+
*       2.0863768212E+01               0
GRID*                342               06.1288881271E+019.0300136218E+00+
*       1.4139296651E+01               0
GRID*                343               06.1823439247E+013.4237391912E+00+
*       1.6666683702E+01               0
GRID*                344               06.0410310323E+016.7085939957E+00+
*       1.6666683702E+01               0
GRID*                345               05.7909633695E+011.4048265658E+01+
*       1.7472612949E+01               0
GRID*                346               05.4134085603E+011.6409376335E+01+
*       1.5269932863E+01               0
GRID*                347               05.9041545379E+011.6769408826E+01+
*       1.2742545811E+01               0
GRID*                348               05.8516912169E+011.0178438625E+01+
*       1.4139296659E+01               0
GRID*                349               05.3609452394E+019.8184061342E+00+
*       1.6666683710E+01               0
GRID*                350               05.4741364077E+011.2539549302E+01+
*       1.1936616573E+01               0
GRID*                351               06.1624990735E+012.0086320157E+01+
*       1.2504566025E+01               0
GRID*                352               05.9884864188E+012.2128003629E+01+
*       1.5031953076E+01               0
GRID*                353               06.1076966923E+011.6449981621E+01+
*       1.7472612949E+01               0
GRID*                354               06.4140814954E+011.9463184811E+01+
*       1.7472612949E+01               0
GRID*                355               06.2948712219E+012.5141206820E+01+
*       1.5031953076E+01               0
GRID*                356               05.7301418832E+011.8811092298E+01+
*       1.5269932863E+01               0
GRID*                357               06.4062652897E+012.0679939276E+01+
*       5.0319530765E+00               0
GRID*                358               05.9399969991E+012.1762908321E+01+
*       5.0319530765E+00               0
GRID*                359               06.6979959011E+011.3150291864E+01+
*       3.8296685364E+00               0
GRID*                360               06.3350194113E+011.8234694753E+01+
*       8.8616216129E+00               0
GRID*                361               06.2317276105E+011.4233260909E+01+
*       3.8296685364E+00               0
GRID*                362               05.7849442643E+012.2447430834E+01+
*       1.0301885939E+01               0
GRID*                363               05.6816524635E+011.8445996990E+01+
*       5.2699328625E+00               0
GRID*                364               06.0766748757E+011.4917783422E+01+
*       9.0996013989E+00               0
GRID*                365               05.9177737464E+01-2.727058285E+01+
*       9.1420039256E+00               0
GRID*                366               06.3098000392E+01-3.062735612E+01+
*       4.9517149450E+00               0
GRID*                367               06.2337387352E+01-2.621253276E+01+
*       4.1902889807E+00               0
GRID*                368               06.3025372320E+01-2.410098469E+01+
*       9.1084469703E+00               0
GRID*                369               06.3785985359E+01-2.851580805E+01+
*       9.8698729347E+00               0
GRID*                370               06.6945635247E+01-2.745775797E+01+
*       4.9181579897E+00               0
GRID*                371               05.3267404426E+01-2.129603628E+01+
*       1.0213496245E+01               0
GRID*                372               05.1481136215E+01-1.914797392E+01+
*       6.0232072645E+00               0
GRID*                373               05.6630856214E+01-2.070769711E+01+
*       4.1902889807E+00               0
GRID*                374               05.3864822529E+01-2.389452626E+01+
*       4.1902889807E+00               0
GRID*                375               04.8715102530E+01-2.233480307E+01+
*       6.0232072645E+00               0
GRID*                376               05.6466191205E+01-1.448749458E+01+
*       3.2714372542E+00               0
GRID*                377               05.8252459416E+01-1.663555695E+01+
*       7.4617262349E+00               0
GRID*                378               06.0913846967E+01-2.171889933E+01+
*       4.1902889807E+00               0
GRID*                379               06.0749181958E+01-1.549869680E+01+
*       3.2714372542E+00               0
GRID*                380               05.6764723060E+01-3.160264264E+01+
*       1.4951714945E+01               0
GRID*                381               05.6004110021E+01-2.718781927E+01+
*       1.4190288981E+01               0
GRID*                382               05.3434724648E+01-2.720449202E+01+
*       9.1036865589E+00               0
GRID*                383               05.4195337687E+01-3.161931539E+01+
*       9.8651125233E+00               0
GRID*                384               05.1021710244E+01-3.153655181E+01+
*       1.4913397578E+01               0
GRID*                385               0-6.045619794E+014.6990027834E+01+
*       5.2705383757E+00               0
GRID*                386               0-5.486417177E+014.6108511855E+01+
*       5.2705383757E+00               0
GRID*                387               0-5.888994978E+014.1996036632E+01+
*       5.2705383757E+00               0
GRID*                388               06.0791946815E+01-2.907106503E+01+
*       1.4951714945E+01               0
GRID*                389               06.0031333776E+01-2.465624167E+01+
*       1.4190288981E+01               0
GRID*                390               05.9937936621E+01-1.987308347E+01+
*       1.4190288981E+01               0
GRID*                391               05.9773271613E+01-1.365288094E+01+
*       1.3271437254E+01               0
GRID*                392               05.5876086345E+01-2.221837811E+01+
*       1.4190288981E+01               0
GRID*                393               05.5711421337E+01-1.599817558E+01+
*       1.3271437254E+01               0
GRID*                394               0-1.148389331E+017.7965924982E+01+
*       5.8333711098E+00               0
GRID*                395               0-1.613647213E+017.7462637563E+01+
*       5.8333711098E+00               0
GRID*                396               0-7.368202822E+007.4183047008E+01+
*       4.7053149503E+00               0
GRID*                397               0-1.137639732E+017.3484475184E+01+
*       1.0538686060E+01               0
GRID*                398               0-1.202078164E+017.3679759590E+01+
*       4.7053149503E+00               0
GRID*                399               0-1.461584204E+018.2133771153E+01+
*       4.9999891449E+00               0
GRID*                400               0-9.963263223E+008.2637058572E+01+
*       4.9999891449E+00               0
GRID*                401               0-1.397145772E+018.1938486748E+01+
*       1.0833360255E+01               0
GRID*                402               0-1.370935740E+017.2603633290E+01+
*       1.5833371110E+01               0
GRID*                403               0-9.593666905E+006.8820755317E+01+
*       1.4705314950E+01               0
GRID*                404               0-1.427485006E+017.7456436580E+01+
*       1.5833371110E+01               0
GRID*                405               0-1.015915957E+017.3673558606E+01+
*       1.4705314950E+01               0
GRID*                406               09.3874155884E+001.7716086334E+01+
*       2.4699929728E+01               0
GRID*                407               09.8325185511E+001.7496323649E+01+
*       1.8420820987E+01               0
GRID*                408               06.4080282408E+001.6298511768E+01+
*       2.1842806681E+01               0
GRID*                409               0-5.557854899E+015.2260017572E+01+
*       4.7321223294E+00               0
GRID*                410               0-5.528931237E+015.0093959780E+01+
*       1.0002660705E+01               0
GRID*                411               0-4.998652282E+015.1378501593E+01+
*       4.7321223294E+00               0
GRID*                412               0-1.880086850E+017.5200122417E+01+
*       1.5833371110E+01               0
GRID*                413               0-1.959772568E+017.0419583157E+01+
*       1.4896009302E+01               0
GRID*                414               0-1.628894499E+017.2486813897E+01+
*       1.0729380412E+01               0
GRID*                415               0-1.450621458E+016.7823094030E+01+
*       1.4896009302E+01               0
GRID*                416               0-1.886733174E+018.0946543786E+01+
*       1.0833341242E+01               0
GRID*                417               0-2.217611242E+017.8879313046E+01+
*       1.4999970132E+01               0
GRID*                418               0-1.886724398E+018.0946570293E+01+
*       1.5833371110E+01               0
GRID*                419               0-1.397142512E+018.1938492938E+01+
*       1.5833371110E+01               0
GRID*                420               0-2.133211943E+017.2222403617E+01+
*       1.0390520027E+01               0
GRID*                421               0-2.212897661E+016.7441864357E+01+
*       9.4531582184E+00               0
GRID*                422               0-2.464090011E+017.0155172877E+01+
*       1.4557148917E+01               0
GRID*                423               0-2.099205318E+017.2367536060E+01+
*       4.8960093017E+00               0
GRID*                424               0-1.945195607E+016.8164482083E+01+
*       4.8960093017E+00               0
GRID*                425               0-2.603522761E+017.2103125780E+01+
*       4.5571489167E+00               0
GRID*                426               0-2.449513051E+016.7900071803E+01+
*       4.5571489167E+00               0
GRID*                427               0-1.217325450E+016.8703935924E+01+
*       9.6013242520E+00               0
GRID*                428               0-1.693332931E+017.2682098303E+01+
*       4.8960093017E+00               0
GRID*                429               0-1.843024216E+016.3357811326E+01+
*       9.6581637105E+00               0
GRID*                430               0-1.594177464E+016.5436049026E+01+
*       4.8960093017E+00               0
GRID*                431               0-1.728621463E+016.1087585714E+01+
*       4.7621544087E+00               0
GRID*                432               0-2.079639606E+016.3816018771E+01+
*       4.7621544087E+00               0
GRID*                433               0-1.477066798E+015.9592545257E+01+
*       9.6366854434E+00               0
GRID*                434               0-1.110891331E+015.8165931124E+01+
*       4.8745310346E+00               0
GRID*                435               0-1.611292748E+015.7582733882E+01+
*       4.7621544087E+00               0
GRID*                436               0-1.228220047E+016.1670782957E+01+
*       4.8745310346E+00               0
GRID*                437               0-1.862415120E+015.4557802213E+01+
*       4.7621544087E+00               0
GRID*                438               0-2.047782336E+015.8430944622E+01+
*       4.7621544087E+00               0
GRID*                439               0-2.402897565E+015.6294662262E+01+
*       1.1428838119E+01               0
GRID*                440               0-2.536058384E+015.5497946272E+01+
*       1.6666683710E+01               0
GRID*                441               0-2.110629033E+015.8212632025E+01+
*       1.4762154409E+01               0
GRID*                442               0-2.288866556E+015.9750816579E+01+
*       1.1908936914E+01               0
GRID*                443               0-2.714295906E+015.7036130827E+01+
*       1.3813466216E+01               0
GRID*                444               0-2.422027374E+015.8954100590E+01+
*       1.7146782505E+01               0
GRID*                445               0-1.931808016E+016.1553036358E+01+
*       1.4762154409E+01               0
GRID*                446               0-2.243206358E+016.2294504923E+01+
*       1.7146782505E+01               0
GRID*                447               0-2.347341660E+016.3093401046E+01+
*       9.3193033254E+00               0
GRID*                448               0-2.417655781E+016.2514997654E+01+
*       4.5571489167E+00               0
GRID*                449               0-2.473255236E+015.5716201568E+01+
*       3.3333162997E+00               0
GRID*                450               0-2.402941114E+015.6294604960E+01+
*       8.0954707085E+00               0
GRID*                451               0-2.772814559E+016.0378657992E+01+
*       7.8904652164E+00               0
GRID*                452               03.6878241075E+01-2.955914865E+01+
*       9.9216722703E+00               0
GRID*                453               03.8246449848E+01-3.249729171E+01+
*       4.5715533596E+00               0
GRID*                454               04.2120326588E+01-2.864729156E+01+
*       5.3501189107E+00               0
GRID*                455               04.0583502148E+01-3.282803673E+01+
*       1.1252237142E+01               0
GRID*                456               03.6709625408E+01-3.667803688E+01+
*       1.0473671591E+01               0
GRID*                457               04.1951710921E+01-3.576617979E+01+
*       5.9021182313E+00               0
GRID*                458               03.4165611630E+01-3.136338205E+01+
*       4.5715533596E+00               0
GRID*                459               03.8039488370E+01-2.751338191E+01+
*       5.3501189107E+00               0
GRID*                460               04.5032319224E+01-2.532122077E+01+
*       5.3501189107E+00               0
GRID*                461               04.8882422752E+01-2.824325881E+01+
*       4.9133975783E+00               0
GRID*                462               04.4602221342E+01-2.863118654E+01+
*       1.0263516489E+01               0
GRID*                463               04.5970430116E+01-3.156932959E+01+
*       4.9133975783E+00               0
GRID*                464               04.4434901120E+01-2.272273080E+01+
*       1.1373326175E+01               0
GRID*                465               04.0858261018E+01-2.409708553E+01+
*       5.3501189107E+00               0
GRID*                466               04.4541044324E+01-2.111066782E+01+
*       6.0232072645E+00               0
GRID*                467               0-8.597806320E+00-2.565394510E+01+
*       1.5216456661E+01               0
GRID*                468               0-4.834921739E+00-2.147795358E+01+
*       1.9271802726E+01               0
GRID*                469               0-7.455861828E+00-2.664277731E+01+
*       1.9033201166E+01               0
GRID*                470               0-7.111219191E+00-3.042358360E+01+
*       1.5798588488E+01               0
GRID*                471               0-4.490279103E+00-2.525875988E+01+
*       1.6037190048E+01               0
GRID*                472               0-3.348334610E+00-2.624759209E+01+
*       1.9853934554E+01               0
GRID*                473               0-5.034778171E+014.1697772552E+01+
*       9.8471128294E+00               0
GRID*                474               0-4.662760324E+014.7868784043E+01+
*       4.4769985488E+00               0
GRID*                475               0-5.328156069E+014.1222042178E+01+
*       5.3701142806E+00               0
GRID*                476               0-5.858435024E+013.9937500365E+01+
*       1.0640652656E+01               0
GRID*                477               0-5.193039279E+014.6584242230E+01+
*       9.7475369245E+00               0
GRID*                478               0-1.481019168E+01-3.316733953E+01+
*       1.7488927550E+01               0
GRID*                479               0-1.949733680E+01-3.583273595E+01+
*       1.5168743119E+01               0
GRID*                480               0-1.590589153E+01-3.348416525E+01+
*       1.2657670669E+01               0
GRID*                481               0-1.284120443E+01-3.647576706E+01+
*       1.1321475778E+01               0
GRID*                482               0-1.643264971E+01-3.882433776E+01+
*       1.3832548227E+01               0
GRID*                483               0-1.752834955E+01-3.914116348E+01+
*       9.0012913463E+00               0
GRID*                484               0-5.451225765E+00-2.978114799E+01+
*       2.1642993953E+01               0
GRID*                485               0-9.558752983E+00-3.017633321E+01+
*       2.0822260566E+01               0
GRID*                486               0-1.077825106E+01-3.472988305E+01+
*       1.7488927550E+01               0
GRID*                487               0-6.670723843E+00-3.433469782E+01+
*       1.8309660938E+01               0
GRID*                488               02.7191017765E+01-5.460049794E+01+
*       1.1814800524E+01               0
GRID*                489               02.7191017760E+01-5.460049794E+01+
*       8.4814671908E+00               0
GRID*                490               02.4292554658E+01-5.382472819E+01+
*       8.4814671908E+00               0
GRID*                491               0-5.962989374E+01-9.987810832E+00+
*       1.5676587495E+01               0
GRID*                492               0-5.727568177E+01-1.194647771E+01+
*       1.4615425559E+01               0
GRID*                493               0-5.815167219E+01-1.104067108E+01+
*       1.0292013053E+01               0
GRID*                494               0-5.736130751E+01-7.515291652E+00+
*       1.2343271205E+01               0
GRID*                495               0-5.648531710E+01-8.421098281E+00+
*       1.6666683710E+01               0
GRID*                496               0-5.500709554E+01-9.473958531E+00+
*       1.1282109269E+01               0
GRID*                497               0-6.439231029E+01-9.063090017E+00+
*       1.2705711394E+01               0
GRID*                498               0-6.693416526E+01-8.564910327E+00+
*       1.7029123899E+01               0
GRID*                499               0-6.304773913E+01-8.583824514E+00+
*       1.5676587495E+01               0
GRID*                500               0-6.013327662E+01-6.366866649E+00+
*       1.2343271197E+01               0
GRID*                501               0-6.401970274E+01-6.347952463E+00+
*       1.3695807602E+01               0
GRID*                502               0-6.267513159E+01-5.868686960E+00+
*       1.6666683702E+01               0
GRID*                503               0-6.737252686E+01-1.312532682E+01+
*       1.7029123899E+01               0
GRID*                504               0-6.348610074E+01-1.314424101E+01+
*       1.5676587495E+01               0
GRID*                505               0-6.406294840E+01-8.266043203E+00+
*       8.9138576054E+00               0
GRID*                506               0-6.108526665E+01-1.393387581E+01+
*       1.0773845908E+01               0
GRID*                507               0-6.464233089E+01-1.311791481E+01+
*       8.3345285237E+00               0
GRID*                508               0-6.425277464E+01-9.470698101E+00+
*       3.2372701106E+00               0
GRID*                509               0-6.069571040E+01-1.028665910E+01+
*       5.6765874947E+00               0
GRID*                510               0-6.127509290E+01-1.513853071E+01+
*       5.0972584131E+00               0
GRID*                511               0-2.525035123E+016.3337656834E+00+
*       -5.041574068E+00               0
GRID*                512               0-2.291928802E+015.9849155538E+00+
*       -6.708240814E+00               0
GRID*                513               0-2.216329014E+018.7885577433E+00+
*       -6.708240814E+00               0
GRID*                514               0-6.406548323E+01-1.799611262E+01+
*       1.5097258413E+01               0
GRID*                515               0-6.497169278E+01-1.391496163E+01+
*       1.2126382312E+01               0
GRID*                516               04.1258445286E+01-4.884813603E+01+
*       4.9441508786E+00               0
GRID*                517               04.0044587985E+01-4.730356938E+01+
*       6.9141048426E+00               0
GRID*                518               03.7828705786E+01-4.587374929E+01+
*       1.9699539641E+00               0
GRID*                519               03.6169059101E+01-4.830131343E+01+
*       3.3333333333E+00               0
GRID*                520               03.8384941300E+01-4.973113352E+01+
*       8.2774842119E+00               0
GRID*                521               03.4955201800E+01-4.675674678E+01+
*       5.3032872974E+00               0
GRID*                522               0-6.794937453E+01-8.247129017E+00+
*       1.0266394010E+01               0
GRID*                523               0-7.087004013E+01-1.077301321E+01+
*       8.4550394732E+00               0
GRID*                524               0-6.789235839E+01-1.644084582E+01+
*       1.0315027776E+01               0
GRID*                525               0-7.119940202E+01-1.157006002E+01+
*       1.2246893262E+01               0
GRID*                526               0-2.315875959E+01-3.224793995E+01+
*       9.1821672916E+00               0
GRID*                527               0-2.309942498E+01-3.343981792E+01+
*       1.5168743119E+01               0
GRID*                528               0-2.566514792E+01-2.953819619E+01+
*       1.4013424173E+01               0
GRID*                529               0-2.772992703E+01-3.194117335E+01+
*       9.1464357648E+00               0
GRID*                530               0-2.516420409E+01-3.584279507E+01+
*       1.0301754711E+01               0
GRID*                531               0-2.767059242E+01-3.313305132E+01+
*       1.5133011592E+01               0
GRID*                532               0-2.737371439E+01-2.730491209E+01+
*       4.0134241726E+00               0
GRID*                533               0-3.162037742E+01-2.696152756E+01+
*       5.7326902843E+00               0
GRID*                534               0-2.997114555E+01-2.800293370E+01+
*       9.7461144569E+00               0
GRID*                535               0-2.829499523E+01-2.355420260E+01+
*       9.0226352079E+00               0
GRID*                536               0-2.994422709E+01-2.251279647E+01+
*       5.0092110353E+00               0
GRID*                537               0-3.254165826E+01-2.321081808E+01+
*       1.0741901320E+01               0
GRID*                538               0-2.866875082E+01-2.642689914E+01+
*       1.4013424173E+01               0
GRID*                539               0-3.291541385E+01-2.608351462E+01+
*       1.5732690284E+01               0
GRID*                540               0-2.991181095E+01-2.919481167E+01+
*       1.5732690284E+01               0
GRID*                541               0-3.091268723E+01-5.845654191E+01+
*       1.7616938468E+01               0
GRID*                542               0-3.414925354E+01-5.781237071E+01+
*       1.4667306798E+01               0
GRID*                543               0-3.214796619E+01-6.004843517E+01+
*       1.2284245267E+01               0
GRID*                544               0-3.113639075E+01-6.194113066E+01+
*       1.7616938468E+01               0
GRID*                545               0-3.437295706E+01-6.129695946E+01+
*       1.4667306798E+01               0
GRID*                546               0-2.572890482E+01-6.474523654E+01+
*       1.4436784213E+01               0
GRID*                547               0-2.171218598E+01-6.363040503E+01+
*       1.6819845744E+01               0
GRID*                548               0-2.489468104E+01-5.957777485E+01+
*       1.7616938468E+01               0
GRID*                549               0-2.753525624E+01-6.329844711E+01+
*       1.7616938468E+01               0
GRID*                550               0-2.435276117E+01-6.735107729E+01+
*       1.6819845744E+01               0
GRID*                551               0-2.781363011E+01-5.713623406E+01+
*       1.0950254768E+01               0
GRID*                552               0-3.105019642E+01-5.649206286E+01+
*       8.0006230982E+00               0
GRID*                553               0-2.781406560E+01-5.713629139E+01+
*       1.4283622179E+01               0
GRID*                554               0-3.105063191E+01-5.649212019E+01+
*       1.1333990509E+01               0
GRID*                555               0-2.407595170E+01-6.007223364E+01+
*       1.2062134611E+01               0
GRID*                556               0-2.543058781E+01-5.994538252E+01+
*       6.7624018597E+00               0
GRID*                557               0-3.026603600E+01-6.056575525E+01+
*       9.9341441854E+00               0
GRID*                558               0-2.297818193E+01-5.651586133E+01+
*       7.7785124424E+00               0
GRID*                559               0-2.916826623E+01-5.700938294E+01+
*       5.6505220168E+00               0
GRID*                560               0-2.297861742E+01-5.651591866E+01+
*       1.1111879853E+01               0
GRID*                561               0-2.005923285E+01-5.895740212E+01+
*       1.4445196143E+01               0
GRID*                562               0-2.379734676E+01-5.602145987E+01+
*       1.6666683710E+01               0
GRID*                563               0-1.798306805E+011.8571329465E+01+
*       2.0531707046E+01               0
GRID*                564               0-1.949600094E+011.7870320119E+01+
*       2.5590915435E+01               0
GRID*                565               0-2.299977075E+011.8970355241E+01+
*       2.1607457643E+01               0
GRID*                566               0-1.920966540E+011.4936485052E+01+
*       1.7980964380E+01               0
GRID*                567               0-1.570589559E+011.3836449930E+01+
*       2.1964422172E+01               0
GRID*                568               0-2.072259829E+011.4235475706E+01+
*       2.3040172768E+01               0
GRID*                569               0-1.228360980E+011.6165857929E+01+
*       1.1742099006E+01               0
GRID*                570               0-1.130806548E+011.6786221493E+01+
*       1.7179083457E+01               0
GRID*                571               0-1.085777509E+011.8183436154E+01+
*       1.3848079597E+01               0
GRID*                572               0-1.666007864E+011.8617218588E+01+
*       1.2479672200E+01               0
GRID*                573               0-1.711036902E+011.7220003927E+01+
*       1.5810676060E+01               0
GRID*                574               0-1.568453432E+011.9237582152E+01+
*       1.7916656651E+01               0
GRID*                575               02.1791985627E+01-5.714285328E+01+
*       1.7801697374E+01               0
GRID*                576               02.0235406566E+01-5.357357119E+01+
*       1.7801697374E+01               0
GRID*                577               02.0744109155E+01-5.841286826E+01+
*       1.3031478421E+01               0
GRID*                578               01.8924517932E+01-5.944434134E+01+
*       1.5229781048E+01               0
GRID*                579               01.7367938872E+01-5.587505925E+01+
*       1.5229781048E+01               0
GRID*                580               04.2433008272E+00-1.639026092E+01+
*       1.9013867864E+01               0
GRID*                581               04.2431300943E+00-1.639034127E+01+
*       2.1870993248E+01               0
GRID*                582               01.3727962572E+00-1.696127795E+01+
*       1.9013827248E+01               0
GRID*                583               0-3.024647035E+01-1.720452691E+01+
*       1.8024281708E+01               0
GRID*                584               0-3.234738889E+01-1.425558472E+01+
*       1.7617443696E+01               0
GRID*                585               0-2.645078158E+01-1.432308597E+01+
*       1.5641725405E+01               0
GRID*                586               0-2.760768549E+01-1.801705757E+01+
*       1.3033492744E+01               0
GRID*                587               0-3.350429280E+01-1.794955632E+01+
*       1.5009211035E+01               0
GRID*                588               0-2.970860403E+01-1.506811538E+01+
*       1.2626654732E+01               0
GRID*                589               0-2.598668083E+01-1.518551654E+01+
*       2.1357614724E+01               0
GRID*                590               0-2.808759937E+01-1.223657435E+01+
*       2.0950776712E+01               0
GRID*                591               0-2.375690894E+01-1.142500448E+01+
*       1.9782324164E+01               0
GRID*                592               0-2.165599040E+01-1.437394667E+01+
*       2.0189162176E+01               0
GRID*                593               0-2.028872897E+01-1.389904784E+01+
*       1.4293536381E+01               0
GRID*                594               0-2.238964751E+01-1.095010565E+01+
*       1.3886698369E+01               0
GRID*                595               0-1.759485633E+01-1.100096636E+01+
*       1.8434135140E+01               0
GRID*                596               0-1.870270944E+01-1.780507494E+01+
*       2.0541914776E+01               0
GRID*                597               0-2.139658208E+01-2.070315642E+01+
*       1.6401316017E+01               0
GRID*                598               0-1.973928367E+01-1.706403056E+01+
*       1.5727678064E+01               0
GRID*                599               0-1.704541103E+01-1.416594908E+01+
*       1.9868276823E+01               0
GRID*                600               0-1.678600271E+01-2.049515883E+01+
*       1.6080430664E+01               0
GRID*                601               0-1.575335606E+01-1.484923683E+01+
*       2.4214971146E+01               0
GRID*                602               0-1.549394773E+01-2.117844658E+01+
*       2.0427124987E+01               0
GRID*                603               0-1.383664933E+01-1.753932072E+01+
*       1.9753487034E+01               0
GRID*                604               0-2.329280820E+01-1.228743506E+01+
*       2.5498213483E+01               0
GRID*                605               0-2.156149453E+01-1.510401163E+01+
*       2.5498213483E+01               0
GRID*                606               0-2.425536716E+01-1.800209311E+01+
*       2.1357614724E+01               0
GRID*                607               0-2.130208620E+01-2.143322138E+01+
*       2.1710367324E+01               0
GRID*                608               01.3050262779E+01-1.613684390E+01+
*       -3.149977361E+00               0
GRID*                609               01.2149339470E+01-1.957088476E+01+
*       -6.945518466E+00               0
GRID*                610               01.5203839836E+01-1.707026593E+01+
*       -6.204458894E+00               0
GRID*                611               01.6552331981E+01-1.900342958E+01+
*       -4.537792148E+00               0
GRID*                612               01.3497831616E+01-2.150404840E+01+
*       -5.278851720E+00               0
GRID*                613               02.0489574146E+01-1.448417873E+01+
*       7.5708725365E-03               0
GRID*                614               02.5501689991E+01-1.474066485E+01+
*       -2.121303487E+00               0
GRID*                615               02.1116878990E+01-1.389271119E+01+
*       -4.537792148E+00               0
GRID*                616               01.8710253555E+01-1.056980950E+01+
*       -1.465384928E+00               0
GRID*                617               02.3095064556E+01-1.141776315E+01+
*       9.5110373335E-01               0
GRID*                618               02.3722369400E+01-1.082629562E+01+
*       -3.594259287E+00               0
GRID*                619               01.9044898291E+01-1.276904956E+01+
*       -6.204458894E+00               0
GRID*                620               01.6016509211E+01-1.229574525E+01+
*       -6.204458894E+00               0
GRID*                621               01.4981333843E+01-9.688393938E+00+
*       -3.347334270E+00               0
GRID*                622               01.7921468989E+01-8.821218424E+00+
*       -7.142875375E+00               0
GRID*                623               01.4893079909E+01-8.347914112E+00+
*       -7.142875375E+00               0
GRID*                624               01.3607022813E+01-1.503205029E+01+
*       -6.204458894E+00               0
GRID*                625               01.0552522447E+01-1.753266911E+01+
*       -6.945518466E+00               0
GRID*                626               01.3355662764E+01-1.212140996E+01+
*       -3.347317529E+00               0
GRID*                627               01.0857922432E+01-1.351723517E+01+
*       -7.142858635E+00               0
GRID*                628               01.0301162398E+01-1.462202878E+01+
*       -4.088377102E+00               0
GRID*                629               02.1650388701E+01-9.702633983E+00+
*       -5.260926033E+00               0
GRID*                630               01.7586824253E+01-6.621978360E+00+
*       -2.403801409E+00               0
GRID*                631               03.3857726806E+002.5935147526E+01+
*       1.9402885649E+01               0
GRID*                632               05.4460035473E+002.6283984277E+01+
*       2.5805575804E+01               0
GRID*                633               02.5982801090E+002.9866059080E+01+
*       2.0263975876E+01               0
GRID*                634               0-1.944793760E+002.4423079976E+01+
*       1.8550840568E+01               0
GRID*                635               09.0292967851E-012.0841005173E+01+
*       2.4092440495E+01               0
GRID*                636               01.1543710690E-012.4771916728E+01+
*       2.4953530723E+01               0
GRID*                637               01.0081243018E+012.4211556522E+01+
*       1.4119308978E+01               0
GRID*                638               08.2933453464E+001.9424037446E+01+
*       1.4731830912E+01               0
GRID*                639               08.8641449075E+002.3526270729E+01+
*       1.8787337522E+01               0
GRID*                640               06.6179679610E+002.4589840953E+01+
*       1.4198782891E+01               0
GRID*                641               06.0471683998E+002.0487607669E+01+
*       1.0143276281E+01               0
GRID*                642               04.8300702893E+001.9802321876E+01+
*       1.4811304825E+01               0
GRID*                643               05.4389440095E-013.7800990787E+01+
*       7.0891027307E+00               0
GRID*                644               0-4.328767869E+004.1493683945E+01+
*       4.9112644994E+00               0
GRID*                645               0-3.362001004E+003.4573440057E+01+
*       2.1778382312E+00               0
GRID*                646               01.0243552538E+003.0198984614E+01+
*       9.1084810920E+00               0
GRID*                647               05.7588389311E-023.7119228502E+01+
*       1.1841907360E+01               0
GRID*                648               0-3.848307016E+003.3891677772E+01+
*       6.9306428608E+00               0
GRID*                649               0-3.597711437E+003.0169841339E+01+
*       1.5029125915E+01               0
GRID*                650               0-6.080554439E+002.5075698986E+01+
*       1.9718680761E+01               0
GRID*                651               0-7.033987245E-013.0013604223E+01+
*       2.0263975876E+01               0
GRID*                652               0-4.839159403E+003.0666223233E+01+
*       2.1431816069E+01               0
GRID*                653               0-3.186241727E+002.4919461870E+01+
*       2.4953530723E+01               0
GRID*                654               03.3179290353E+003.4524849456E+01+
*       1.6930642861E+01               0
GRID*                655               08.3749257038E+003.3923133194E+01+
*       1.9087407794E+01               0
GRID*                656               05.5950459107E+002.8915506067E+01+
*       1.6018050654E+01               0
GRID*                657               04.6218270032E+002.9597639815E+01+
*       1.1164223056E+01               0
GRID*                658               07.4017067963E+003.4605266942E+01+
*       1.4233580196E+01               0
GRID*                659               09.6788236717E+002.8995923553E+01+
*       1.3320987989E+01               0
GRID*                660               0-2.484987347E+002.5350812442E+01+
*       9.8739872671E+00               0
GRID*                661               0-6.620748026E+002.6003431452E+01+
*       1.1041827460E+01               0
GRID*                662               0-4.686977803E+002.1311317180E+01+
*       1.0322479712E+01               0
GRID*                663               0-1.663941214E+002.5477727067E+01+
*       1.4309778166E+01               0
GRID*                664               0-5.799701892E+002.6130346077E+01+
*       1.5477618359E+01               0
GRID*                665               0-2.235069324E+013.1156032637E+00+
*       -4.692778956E+00               0
GRID*                666               0-2.053949869E+015.4394824073E+00+
*       -1.401019770E+00               0
GRID*                667               01.4773471742E+013.1595502468E+01+
*       9.4165443826E+00               0
GRID*                668               01.5746690649E+013.0913368721E+01+
*       1.4270371981E+01               0
GRID*                669               01.4023565697E+012.6048370170E+01+
*       1.7158994902E+01               0
GRID*                670               01.3050346789E+012.6730503917E+01+
*       1.2305167304E+01               0
GRID*                671               01.9118213767E+012.8647949085E+01+
*       1.3254551295E+01               0
GRID*                672               01.3452766135E+012.1946136886E+01+
*       1.3103488292E+01               0
GRID*                673               01.2235668025E+012.1260851093E+01+
*       1.7771516837E+01               0
GRID*                674               01.3783577216E+012.6889929481E+01+
*       2.2420740809E+01               0
GRID*                675               01.1995679544E+012.2102410404E+01+
*       2.3033262744E+01               0
GRID*                676               01.7155100333E+012.4624509845E+01+
*       2.1404920124E+01               0
GRID*                677               08.4427693491E+002.5333431264E+01+
*       2.1559650582E+01               0
GRID*                678               06.6548716774E+002.0545912187E+01+
*       2.2172172516E+01               0
GRID*                679               01.1574303986E+012.3909570939E+01+
*       2.5805575804E+01               0
GRID*                680               03.8071482390E+002.4127986991E+01+
*       1.6630572589E+01               0
GRID*                681               01.6051577833E+002.0088491729E+01+
*       1.7079065034E+01               0
GRID*                682               01.5609712925E+002.5191557215E+01+
*       1.2042017958E+01               0
GRID*                683               0-6.410191633E-012.1152061952E+01+
*       1.2490510403E+01               0
GRID*                684               0-4.839451559E+013.8398753155E+01+
*       1.3736371474E+01               0
GRID*                685               0-4.769414063E+013.3078364944E+01+
*       1.3736371474E+01               0
GRID*                686               0-4.321874837E+013.6248265027E+01+
*       1.3736371474E+01               0
GRID*                687               01.0848438428E+012.8410421165E+01+
*       2.2420740809E+01               0
GRID*                688               08.6391651979E+002.5430062623E+01+
*       2.5805575804E+01               0
GRID*                689               0-2.436042372E+018.6513245319E+00+
*       1.4807255484E+01               0
GRID*                690               0-2.266843445E+011.1625223560E+01+
*       1.1552545715E+01               0
GRID*                691               0-2.820919227E+011.0332695513E+01+
*       1.0931559111E+01               0
GRID*                692               0-2.784309755E+01-6.824749782E-01+
*       1.7924219812E+01               0
GRID*                693               0-2.315884575E+01-6.952082942E-02+
*       1.6489882345E+01               0
GRID*                694               0-2.149065954E+014.7440269954E+00+
*       1.8250827424E+01               0
GRID*                695               0-2.617491134E+014.1310728466E+00+
*       1.9685164891E+01               0
GRID*                696               0-2.376218578E+014.2075148644E-01+
*       2.2161622875E+01               0
GRID*                697               08.3670396181E+002.2991430155E+01+
*       2.7472242788E+01               0
GRID*                698               05.1363643751E+002.1181669097E+01+
*       2.7472242788E+01               0
GRID*                699               08.9660400300E+001.9523246869E+01+
*       2.7472242788E+01               0
GRID*                700               0-1.891614801E+01-1.431137150E+00+
*       -4.756444975E+00               0
GRID*                701               03.5380719503E+001.6869327700E+01+
*       2.1842792251E+01               0
GRID*                702               01.3243052370E+001.9033844638E+01+
*       2.1320127435E+01               0
GRID*                703               0-2.213870049E+001.7164420685E+01+
*       2.3763060230E+01               0
GRID*                704               03.1166963918E+001.8676488235E+01+
*       2.4615105311E+01               0
GRID*                705               03.7744414368E+012.9615767457E+01+
*       1.0000000000E+01               0
GRID*                706               03.9939764793E+012.8467314371E+01+
*       4.1988349946E+00               0
GRID*                707               04.1367510159E+012.6923749445E+01+
*       1.4198834995E+01               0
GRID*                708               03.5524266353E+012.5393958015E+01+
*       1.0000000000E+01               0
GRID*                709               03.7719616777E+012.4245504929E+01+
*       4.1988349946E+00               0
GRID*                710               0-2.408745910E+002.2591927844E+01+
*       2.6620197707E+01               0
GRID*                711               02.9218205300E+002.4103995393E+01+
*       2.7472242788E+01               0
GRID*                712               03.9611499368E+012.2065409505E+01+
*       1.3969963300E+01               0
GRID*                713               03.5963605986E+011.9387164990E+01+
*       3.9699632997E+00               0
GRID*                714               04.1806849792E+012.0916956419E+01+
*       8.1687982943E+00               0
GRID*                715               07.6552767775E+002.9264342818E+01+
*       2.2420740809E+01               0
GRID*                716               08.0432454825E+00-1.858161208E+01+
*       2.2918716954E+01               0
GRID*                717               01.1344480390E+01-1.807188138E+01+
*       2.2909519648E+01               0
GRID*                718               01.2249943396E+01-1.832633028E+01+
*       2.0110000326E+01               0
GRID*                719               09.7776093482E+00-1.472134949E+01+
*       2.2202451329E+01               0
GRID*                720               08.8721463424E+00-1.446690059E+01+
*       2.5001970650E+01               0
GRID*                721               01.3078844256E+01-1.421161879E+01+
*       2.2193254022E+01               0
GRID*                722               01.3078745465E+01-1.421170051E+01+
*       1.9336099295E+01               0
GRID*                723               09.7775105569E+00-1.472143121E+01+
*       1.9345296601E+01               0
GRID*                724               01.0267482261E+01-2.356370276E+01+
*       2.3392931832E+01               0
GRID*                725               01.3568717169E+01-2.305397206E+01+
*       2.3383734526E+01               0
GRID*                726               09.3620192553E+00-2.330925386E+01+
*       2.6192451153E+01               0
GRID*                727               07.3445297107E+00-1.634703897E+01+
*       2.2202463832E+01               0
GRID*                728               06.4390667049E+00-1.609259008E+01+
*       2.5001983154E+01               0
GRID*                729               06.9546354252E+00-2.423053577E+01+
*       1.9121953589E+01               0
GRID*                730               08.2734091980E+00-2.895817755E+01+
*       2.2395687788E+01               0
GRID*                731               06.0491724194E+00-2.397608688E+01+
*       2.1921472910E+01               0
GRID*                732               07.3447004436E+00-1.634695863E+01+
*       1.9345338448E+01               0
GRID*                733               05.8473088719E+00-1.887936327E+01+
*       1.9787727048E+01               0
GRID*                734               04.9418458661E+00-1.862491437E+01+
*       2.2587246369E+01               0
GRID*                735               04.2434564327E+00-1.639018769E+01+
*       1.6156740938E+01               0
GRID*                736               07.3448560491E+00-1.634688540E+01+
*       1.6488211522E+01               0
GRID*                737               09.9828536710E+00-1.900597765E+01+
*       1.5719241618E+01               0
GRID*                738               06.8814540546E+00-1.904927994E+01+
*       1.5387771033E+01               0
GRID*                739               08.3790012319E+00-1.651680207E+01+
*       1.2088255507E+01               0
GRID*                740               03.8532358088E+00-2.427383807E+01+
*       1.8790483004E+01               0
GRID*                741               07.9887806079E+00-2.440045244E+01+
*       1.4721997574E+01               0
GRID*                742               04.0708135024E+002.1487087638E+01+
*       6.8744525775E+00               0
GRID*                743               02.0472773041E+002.5873319499E+01+
*       7.2892133285E+00               0
GRID*                744               03.5341974637E+002.6494515037E+01+
*       3.9409157115E+00               0
GRID*                745               02.4854862621E-022.1646342865E+01+
*       4.7064218866E+00               0
GRID*                746               0-1.462065297E+002.1025147328E+01+
*       8.0547195035E+00               0
GRID*                747               0-1.998681336E+002.6032574727E+01+
*       5.1211826375E+00               0
GRID*                748               05.6493686360E+001.7982996500E+01+
*       5.3344647746E+00               0
GRID*                749               04.1624484764E+001.7361800962E+01+
*       8.6827623916E+00               0
GRID*                750               02.7784734873E+001.8554071983E+01+
*       5.3345431224E+00               0
GRID*                751               01.2915533277E+001.7932876445E+01+
*       8.6828407393E+00               0
GRID*                752               09.1733960593E+002.0382636329E+01+
*       -2.619072886E+00               0
GRID*                753               09.0819166908E+002.4507849777E+01+
*       -1.570255774E+00               0
GRID*                754               05.6492130304E+001.7983069726E+01+
*       2.4773378483E+00               0
GRID*                755               08.9502358474E+001.6127939996E+01+
*       2.1007887190E+00               0
GRID*                756               01.2382939508E+012.2652720047E+01+
*       -1.946804903E+00               0
GRID*                757               08.8587564789E+002.0253153445E+01+
*       3.1496058313E+00               0
GRID*                758               05.3608143207E+00-8.321767162E+01+
*       1.4999995796E+01               0
GRID*                759               07.6257235334E+001.6983516531E+01+
*       8.6032884783E+00               0
GRID*                760               07.5340885594E+002.1108803207E+01+
*       6.7949786643E+00               0
GRID*                761               01.0646090957E+01-1.583715470E+01+
*       1.6479014216E+01               0
GRID*                762               01.3284088579E+01-1.849624695E+01+
*       1.5710044312E+01               0
GRID*                763               02.5948844991E+01-1.172408305E+01+
*       1.0931201621E+01               0
GRID*                764               02.3619160189E+01-7.457470502E+00+
*       1.4353340981E+01               0
GRID*                765               01.6716005957E+01-2.057450561E+01+
*       1.9017633767E+01               0
GRID*                766               02.1074481353E+01-1.978514469E+01+
*       1.6874047290E+01               0
GRID*                767               01.9909653700E+01-1.702723866E+01+
*       1.7957216543E+01               0
GRID*                768               01.8973332262E+01-1.931363297E+01+
*       2.3383734526E+01               0
GRID*                769               02.0138159916E+01-2.207153901E+01+
*       2.2300565273E+01               0
GRID*                770               02.3331807658E+01-1.852427206E+01+
*       2.1240148048E+01               0
GRID*                771               03.7515252859E+01-2.003877863E+01+
*       9.5313067419E+00               0
GRID*                772               02.9918284235E+01-1.945718863E+01+
*       9.9775477833E+00               0
GRID*                773               03.3155149190E+01-2.512755850E+01+
*       1.1146478863E+01               0
GRID*                774               03.7609433733E+01-2.300399433E+01+
*       1.5350118911E+01               0
GRID*                775               03.4372568777E+01-1.733362446E+01+
*       1.4181187831E+01               0
GRID*                776               03.0012465109E+01-2.242240433E+01+
*       1.5796359952E+01               0
GRID*                777               02.4913154831E+01-2.039192312E+01+
*       1.3703174985E+01               0
GRID*                778               02.9367439374E+01-1.826835895E+01+
*       1.7906815033E+01               0
GRID*                779               02.9273258500E+01-1.530314325E+01+
*       1.2088002864E+01               0
GRID*                780               02.5225710384E+01-2.918108392E+01+
*       1.0692794891E+01               0
GRID*                781               02.3826171328E+01-3.335516027E+01+
*       1.4896434939E+01               0
GRID*                782               02.4158641510E+01-2.872004485E+01+
*       1.5796359952E+01               0
GRID*                783               02.1719507089E+01-2.393919007E+01+
*       1.4763592209E+01               0
GRID*                784               02.1387036906E+01-2.857430549E+01+
*       1.3863667197E+01               0
GRID*                785               02.0319968033E+01-2.811326643E+01+
*       1.8967232257E+01               0
GRID*                786               02.7095078366E+01-3.052507543E+01+
*       1.4896434939E+01               0
GRID*                787               02.7427548548E+01-2.588996000E+01+
*       1.5796359952E+01               0
GRID*                788               05.9318315975E+015.7738138157E+01+
*       5.0000090589E+00               0
GRID*                789               05.4943639182E+015.9116997687E+01+
*       5.0000090589E+00               0
GRID*                790               05.5338737191E+015.4120211750E+01+
*       5.6720731450E+00               0
GRID*                791               05.7002252162E+015.9131267873E+01+
*       1.0672082204E+01               0
GRID*                792               05.0964060398E+015.5499071280E+01+
*       5.6720731450E+00               0
GRID*                793               05.4276645254E+014.9825074146E+01+
*       1.0623685625E+01               0
GRID*                794               05.2599053086E+014.3692863283E+01+
*       1.4951612480E+01               0
GRID*                795               05.1345081210E+014.9381130604E+01+
*       1.5672073145E+01               0
GRID*                796               04.9392369039E+015.0370543024E+01+
*       1.0758712887E+01               0
GRID*                797               05.0646340915E+014.4682275704E+01+
*       1.0038252223E+01               0
GRID*                798               04.7714776871E+014.4238332162E+01+
*       1.5086639742E+01               0
GRID*                799               05.1860567093E+015.0737824493E+01+
*       5.6720731450E+00               0
GRID*                800               05.3114538969E+014.5049557172E+01+
*       4.9516124805E+00               0
GRID*                801               04.8230262754E+014.5595026051E+01+
*       5.0866397421E+00               0
GRID*                802               04.7333756059E+015.0356272838E+01+
*       5.0866397421E+00               0
GRID*                803               04.5971739932E+015.5006015894E+01+
*       1.2223359457E+01               0
GRID*                804               04.3913126951E+015.4991745708E+01+
*       6.5512863125E+00               0
GRID*                805               04.2341435592E+014.9863217452E+01+
*       1.1637926055E+01               0
GRID*                806               05.6592709067E+014.8431944430E+01+
*       4.9516124805E+00               0
GRID*                807               0-3.542650837E+016.4500811846E+01+
*       1.5518371635E+01               0
GRID*                808               0-3.966305375E+016.7419567586E+01+
*       1.5518371635E+01               0
GRID*                809               0-3.923572659E+016.2957611866E+01+
*       1.5518371635E+01               0
GRID*                810               0-4.870578999E+016.7540577695E+01+
*       4.9999351707E+00               0
GRID*                811               0-4.989970876E+016.3796704304E+01+
*       9.7320575001E+00               0
GRID*                812               0-4.921774463E+015.9107822909E+01+
*       4.7321223294E+00               0
GRID*                813               0-4.515369473E+016.0051762732E+01+
*       4.1588390261E+00               0
GRID*                814               0-4.583565886E+016.4740644127E+01+
*       9.1587741968E+00               0
GRID*                815               0-4.634761351E+015.6307889340E+01+
*       8.8909613555E+00               0
GRID*                816               0-4.076230266E+016.2681113031E+01+
*       9.6772106615E+00               0
GRID*                817               0-3.978912805E+016.7871939853E+01+
*       5.5183716354E+00               0
GRID*                818               0-4.131038899E+016.2442655985E+01+
*       4.1588390261E+00               0
GRID*                819               0-4.363243379E+016.5481046600E+01+
*       5.5183716354E+00               0
GRID*                820               0-2.900975566E+01-3.860948051E+01+
*       8.4663278918E+00               0
GRID*                821               0-3.138932457E+01-4.043566239E+01+
*       8.4663449254E+00               0
GRID*                822               0-3.222643614E+01-3.774159969E+01+
*       5.1330115921E+00               0
GRID*                823               0-3.150082027E+01-4.081505172E+01+
*       3.3333162997E+00               0
GRID*                824               0-3.388038918E+01-4.264123361E+01+
*       3.3333333333E+00               0
GRID*                825               0-3.555970166E+017.0238652342E+01+
*       5.5183716354E+00               0
GRID*                826               0-3.693986192E+016.3431651776E+01+
*       1.0194860982E+01               0
GRID*                827               0-3.325852186E+016.5559907219E+01+
*       4.6764893465E+00               0
GRID*                828               0-2.952525633E+016.9772180931E+01+
*       4.5571489167E+00               0
GRID*                829               0-3.320659638E+016.7643925488E+01+
*       1.0075520552E+01               0
GRID*                830               0-3.090541658E+016.2965180365E+01+
*       9.2336382632E+00               0
GRID*                831               0-3.748794825E+016.3193194730E+01+
*       4.6764893465E+00               0
GRID*                832               0-3.846112286E+015.8002367908E+01+
*       8.8353283726E+00               0
GRID*                833               0-2.921031442E+016.4606658934E+01+
*       4.5571489167E+00               0
GRID*                834               0-3.294357995E+016.0394385221E+01+
*       4.6764893465E+00               0
GRID*                835               0-4.003664922E+017.2749422028E+01+
*       1.0518306289E+01               0
GRID*                836               0-3.400220388E+017.2282950617E+01+
*       9.5570835705E+00               0
GRID*                837               0-3.635530916E+017.4877677471E+01+
*       4.9999346538E+00               0
GRID*                838               02.4179838193E+013.5166959446E+01+
*       1.5182964187E+01               0
GRID*                839               02.4808844131E+013.0648206205E+01+
*       1.5182964187E+01               0
GRID*                840               02.4646247607E+013.3871027399E+01+
*       9.7363818303E+00               0
GRID*                841               02.7984747081E+013.5525039209E+01+
*       1.4553417643E+01               0
GRID*                842               02.8613753019E+013.1006285968E+01+
*       1.4553417643E+01               0
GRID*                843               01.6875794379E+013.9837045575E+01+
*       3.5333496848E+00               0
GRID*                844               02.0774136276E+013.8997000605E+01+
*       3.3333333332E+00               0
GRID*                845               01.9359811773E+014.4228005800E+01+
*       6.8666830180E+00               0
GRID*                846               01.8151404298E+013.9290499204E+01+
*       8.7163138718E+00               0
GRID*                847               01.9565728801E+013.4059494008E+01+
*       5.1829641871E+00               0
GRID*                848               02.2049746195E+013.8450454233E+01+
*       8.5162975203E+00               0
GRID*                849               01.6226022996E+014.3870280352E+01+
*       3.5333496848E+00               0
GRID*                850               02.0124364893E+014.3030235382E+01+
*       3.3333333332E+00               0
GRID*                851               01.2083537320E+013.7373054035E+01+
*       7.7669298803E+00               0
GRID*                852               01.7646864555E+013.5405361536E+01+
*       1.5182964187E+01               0
GRID*                853               01.4956930133E+014.1182913104E+01+
*       1.3533349685E+01               0
GRID*                854               01.1578997577E+013.3487916368E+01+
*       1.4233580196E+01               0
GRID*                855               02.2049746197E+013.8450454232E+01+
*       1.1849630853E+01               0
GRID*                856               01.9359811775E+014.4228005799E+01+
*       1.0200016351E+01               0
GRID*                857               01.8855272032E+014.0342868132E+01+
*       1.6666666666E+01               0
GRID*                858               02.3815863576E+012.5209256045E+01+
*       1.3372011228E+01               0
GRID*                859               02.2092738624E+012.0344257494E+01+
*       1.6260634150E+01               0
GRID*                860               02.2452849689E+012.5185817181E+01+
*       6.6961491649E+00               0
GRID*                861               02.5427374546E+011.6882125590E+01+
*       9.7022320192E+00               0
GRID*                862               02.0729724736E+012.0320818630E+01+
*       9.5847720862E+00               0
GRID*                863               02.7783368988E+012.2344514614E+01+
*       1.8189047041E+01               0
GRID*                864               02.3085719178E+012.5783207654E+01+
*       1.8071587108E+01               0
GRID*                865               02.1487253497E+013.3415727088E+01+
*       1.5182964187E+01               0
GRID*                866               0-1.320319749E+013.6728959306E+01+
*       4.8571021508E+00               0
GRID*                867               0-7.050366981E+003.3324827968E+01+
*       1.2876636315E+00               0
GRID*                868               0-1.201890120E+013.1787654058E+01+
*       6.1447657823E+00               0
GRID*                869               0-1.750455913E+013.5263713137E+01+
*       4.8571021508E+00               0
GRID*                870               0-1.135172861E+013.1859581798E+01+
*       1.2876636315E+00               0
GRID*                871               0-6.799771402E+002.9602991534E+01+
*       9.3861466855E+00               0
GRID*                872               0-1.295260191E+013.3007122873E+01+
*       1.2955585205E+01               0
GRID*                873               0-1.603213988E+013.1046166626E+01+
*       1.2612019449E+01               0
GRID*                874               0-9.879309370E+002.7642035287E+01+
*       9.0425809295E+00               0
GRID*                875               0-1.081301008E+012.8861504102E+01+
*       1.5853400352E+01               0
GRID*                876               0-2.167218412E+013.3492660521E+01+
*       9.5038254707E+00               0
GRID*                877               0-2.485181856E+013.1147450366E+01+
*       4.6467233199E+00               0
GRID*                878               0-2.135136616E+013.2846575241E+01+
*       4.8571021508E+00               0
GRID*                879               0-1.729014880E+013.0274149317E+01+
*       7.0934333004E+00               0
GRID*                880               0-2.079060120E+012.8575024442E+01+
*       6.8830544695E+00               0
GRID*                881               0-2.046978324E+012.7928939161E+01+
*       2.2363311496E+00               0
GRID*                882               0-1.603096063E+013.9588445550E+01+
*       9.6142264377E+00               0
GRID*                883               0-1.644973859E+014.2877431955E+01+
*       1.4757124287E+01               0
GRID*                884               0-1.859050967E+013.8480771802E+01+
*       1.4857102151E+01               0
GRID*                885               0-1.461941571E+013.6815133500E+01+
*       1.4857102151E+01               0
GRID*                886               0-1.247864463E+014.1211793653E+01+
*       1.4757124287E+01               0
GRID*                887               0-1.953259229E+012.9347041750E+01+
*       1.2401640618E+01               0
GRID*                888               0-1.862075991E+013.5176729262E+01+
*       1.4857102151E+01               0
GRID*                889               0-2.212121232E+013.3477604387E+01+
*       1.4646723320E+01               0
GRID*                890               0-1.648116808E+013.1031110491E+01+
*       1.7754917298E+01               0
GRID*                891               0-1.309502090E+01-3.263978093E+01+
*       7.3727533603E+00               0
GRID*                892               0-1.737052213E+01-3.632263395E+01+
*       5.1687431190E+00               0
GRID*                893               0-9.872506378E+00-3.281285321E+01+
*       2.2040102413E+00               0
GRID*                894               0-1.003033380E+01-3.563138274E+01+
*       6.0365584686E+00               0
GRID*                895               0-1.430583503E+01-3.931423576E+01+
*       3.8325482273E+00               0
GRID*                896               0-1.240070909E+01-4.038688128E+01+
*       1.3832548227E+01               0
GRID*                897               0-8.462347130E+00-3.952974257E+01+
*       8.0415897877E+00               0
GRID*                898               0-6.839889104E+00-3.387274434E+01+
*       1.1697969111E+01               0
GRID*                899               0-6.399393756E+00-3.778385856E+01+
*       1.4209041560E+01               0
GRID*                900               0-8.088028745E+00-1.902492644E+01+
*       1.2461372959E+01               0
GRID*                901               0-1.070896883E+01-2.418975016E+01+
*       1.2222771398E+01               0
GRID*                902               0-1.483102376E+01-2.747652676E+01+
*       1.5865961858E+01               0
GRID*                903               0-1.221008367E+01-2.231170303E+01+
*       1.6104563419E+01               0
GRID*                904               0-1.432124619E+01-2.084750810E+01+
*       1.3110878156E+01               0
GRID*                905               0-2.900932017E+01-3.860942321E+01+
*       1.1799695302E+01               0
GRID*                906               0-2.443815273E+01-3.891618981E+01+
*       1.1835426829E+01               0
GRID*                907               0-2.219704887E+01-3.719012388E+01+
*       1.5168743119E+01               0
GRID*                908               0-2.676821631E+01-3.688335729E+01+
*       1.5133011592E+01               0
GRID*                909               0-2.604216495E+01-3.995675202E+01+
*       1.6666683710E+01               0
GRID*                910               0-3.197659006E+01-3.159778883E+01+
*       1.0865701876E+01               0
GRID*                911               0-8.407875779E+00-2.997438450E+01+
*       9.6929377915E+00               0
GRID*                912               0-1.795182837E+01-3.105736833E+01+
*       7.7287285769E+00               0
GRID*                913               0-1.326468325E+01-2.839197191E+01+
*       1.0048913008E+01               0
GRID*                914               0-1.045381262E+01-2.754758759E+01+
*       4.7639956993E+00               0
GRID*                915               0-5.744986087E+004.1579858138E+01+
*       1.4911264499E+01               0
GRID*                916               0-9.400285913E+003.4630470975E+01+
*       1.8098483054E+01               0
GRID*                917               0-4.078172289E+003.7771847512E+01+
*       1.3009747553E+01               0
GRID*                918               0-1.483769573E+004.2320104593E+01+
*       1.4911264499E+01               0
GRID*                919               0-5.139069399E+003.5370717430E+01+
*       1.8098483054E+01               0
GRID*                920               01.9507837291E-014.1927456330E+01+
*       4.9112644994E+00               0
GRID*                921               01.1618452374E+003.5007212442E+01+
*       2.1778382312E+00               0
GRID*                922               0-7.156531003E+004.4353170189E+01+
*       9.6683887864E+00               0
GRID*                923               0-5.457278408E+004.5390697550E+01+
*       1.4911264499E+01               0
GRID*                924               0-1.219093695E+014.5022633064E+01+
*       1.4757124287E+01               0
GRID*                925               0-4.089683846E+004.7840292104E+01+
*       9.7310411872E+00               0
GRID*                926               0-9.124089790E+004.8509754979E+01+
*       1.4819776688E+01               0
GRID*                927               0-1.694692064E-014.7418638209E+01+
*       1.4911264499E+01               0
GRID*                928               0-3.836280589E+005.0537695638E+01+
*       1.4819776688E+01               0
GRID*                929               06.0282796225E+004.6284692548E+01+
*       1.4911264499E+01               0
GRID*                930               02.8374681824E+004.2126855629E+01+
*       1.4911264499E+01               0
GRID*                931               02.8600060555E+004.3058254336E+01+
*       8.7325662026E+00               0
GRID*                932               06.1203467015E+004.0463875290E+01+
*       1.3821301703E+01               0
GRID*                933               03.3404669084E+003.5456248163E+01+
*       1.0751944564E+01               0
GRID*                934               0-1.376558869E+015.4984348774E+01+
*       9.5819310965E+00               0
GRID*                935               0-1.261505774E+015.0532802972E+01+
*       4.8197766877E+00               0
GRID*                936               0-1.010383402E+015.3557734641E+01+
*       4.8197766877E+00               0
GRID*                937               0-8.513680326E+006.4938669855E+01+
*       9.5798459849E+00               0
GRID*                938               0-1.084664040E+016.4057827961E+01+
*       1.4874531035E+01               0
GRID*                939               0-5.897576022E+006.1402083666E+01+
*       1.4874531035E+01               0
GRID*                940               0-4.644602529E+006.6165011022E+01+
*       1.4705314950E+01               0
GRID*                941               0-1.342622800E+016.3941008568E+01+
*       9.7705403363E+00               0
GRID*                942               0-1.797364018E+016.5901499669E+01+
*       1.4896009302E+01               0
GRID*                943               0-1.431406600E+016.2136233600E+01+
*       1.4874531035E+01               0
GRID*                944               0-1.089528600E+015.8524843577E+01+
*       1.4874531035E+01               0
GRID*                945               0-1.589930016E+015.7941646335E+01+
*       1.4762154409E+01               0
GRID*                946               0-8.761574523E+005.5567546016E+01+
*       9.6943077223E+00               0
GRID*                947               0-9.890206706E+005.3916647094E+01+
*       1.4819776688E+01               0
GRID*                948               0-1.886077391E-016.0442522071E+01+
*       1.5080532427E+01               0
GRID*                949               0-4.057685536E+005.9216180904E+01+
*       9.9550634612E+00               0
GRID*                950               0-2.804712043E+006.3979108260E+01+
*       9.7858473769E+00               0
GRID*                951               0-3.052606241E+005.4607984421E+01+
*       9.9003091143E+00               0
GRID*                952               0-6.754233280E+005.7579573618E+01+
*       4.8745310346E+00               0
GRID*                953               0-1.045264997E+005.6620012023E+01+
*       5.0805324265E+00               0
GRID*                954               0-5.749153985E+005.2971377135E+01+
*       4.8197766877E+00               0
GRID*                955               0-7.224716036E+006.6410873915E+01+
*       4.7053149503E+00               0
GRID*                956               0-8.477689529E+006.1647946559E+01+
*       4.8745310346E+00               0
GRID*                957               0-1.102922697E+016.6433710312E+01+
*       4.7053149503E+00               0
GRID*                958               0-3.698188362E+01-4.409710734E+01+
*       3.1880576005E+00               0
GRID*                959               0-3.905455106E+01-4.694844923E+01+
*       3.1880576005E+00               0
GRID*                960               0-4.096805653E+01-4.538276772E+01+
*       8.2766850452E+00               0
GRID*                961               0-3.870367366E+01-4.123283128E+01+
*       5.0886274448E+00               0
GRID*                962               0-4.077634110E+01-4.408417318E+01+
*       5.0886274448E+00               0
GRID*                963               0-5.155830274E+014.9793333967E+01+
*       1.4732122329E+01               0
GRID*                964               0-5.643595170E+014.4523344229E+01+
*       1.5270538376E+01               0
GRID*                965               0-4.705274384E+015.1854231967E+01+
*       9.2091208782E+00               0
GRID*                966               0-4.819938317E+014.6283616417E+01+
*       1.4476998549E+01               0
GRID*                967               0-6.547741367E+014.8128334273E+01+
*       1.0270599319E+01               0
GRID*                968               0-6.650227894E+014.9751538956E+01+
*       1.5000060943E+01               0
GRID*                969               0-6.119182659E+014.6447174725E+01+
*       1.5270538376E+01               0
GRID*                970               0-6.231532461E+015.1995247108E+01+
*       1.0270562930E+01               0
GRID*                971               0-6.334018989E+015.3618451791E+01+
*       1.5000024554E+01               0
GRID*                972               0-5.743767566E+015.7265236845E+01+
*       9.7321468836E+00               0
GRID*                973               0-5.749535974E+014.9918143719E+01+
*       1.5270538376E+01               0
GRID*                974               0-5.261771079E+015.5188133457E+01+
*       1.4732122329E+01               0
GRID*                975               0-5.964372304E+015.7089420785E+01+
*       1.5000024554E+01               0
GRID*                976               0-6.051856060E+014.1255938321E+01+
*       1.5270538376E+01               0
GRID*                977               0-5.893594952E+013.6369468644E+01+
*       1.5370114281E+01               0
GRID*                978               0-5.485334062E+013.9636874552E+01+
*       1.5370114281E+01               0
GRID*                979               01.5524578500E+015.2770719077E+01+
*       9.4274809065E+00               0
GRID*                980               02.0008298775E+015.2142758485E+01+
*       1.1263037405E+01               0
GRID*                981               01.7220724518E+014.9812271165E+01+
*       1.1497776834E+01               0
GRID*                982               01.7220724518E+014.9812271165E+01+
*       8.1644435011E+00               0
GRID*                983               02.0008298775E+015.2142758485E+01+
*       7.9297040720E+00               0
GRID*                984               08.6760839907E-015.4186330526E+01+
*       1.5080532427E+01               0
GRID*                985               05.1989204052E+005.8228929100E+01+
*       1.5080532427E+01               0
GRID*                986               01.0741781153E+015.4320735324E+01+
*       1.4831110168E+01               0
GRID*                987               06.4104691469E+005.0278136750E+01+
*       1.4831110168E+01               0
GRID*                988               07.1941434951E+005.4348425533E+01+
*       9.9116425943E+00               0
GRID*                989               01.1369343090E+015.7907351440E+01+
*       9.4091972996E+00               0
GRID*                990               05.8264823426E+006.1815545215E+01+
*       9.6586195584E+00               0
GRID*                991               09.3741200005E+006.1787855006E+01+
*       1.4578087132E+01               0
GRID*                992               01.4156917347E+016.0237838760E+01+
*       9.1744578705E+00               0
GRID*                993               01.2278328484E+016.2531526602E+01+
*       4.5780871318E+00               0
GRID*                994               01.6433563893E+015.7394894240E+01+
*       4.5963707387E+00               0
GRID*                995               01.3645989636E+015.5064406920E+01+
*       4.8311101678E+00               0
GRID*                996               01.0240528812E+014.7736348421E+01+
*       4.8311101678E+00               0
GRID*                997               01.1602761629E+014.5050257927E+01+
*       3.5333496848E+00               0
GRID*                998               01.4099237059E+014.7754141264E+01+
*       8.3644598526E+00               0
GRID*                999               09.4399444088E+004.5917752877E+01+
*       8.6524118709E+00               0
GRID*               1000               06.9434689782E+004.3213869540E+01+
*       3.8213017031E+00               0
GRID*               1001               01.0802177225E+014.3231662384E+01+
*       7.3546513879E+00               0
GRID*               1002               01.3640405360E+015.0556103377E+01+
*       4.8311101678E+00               0
GRID*               1003               01.6427979617E+015.2886590697E+01+
*       4.5963707387E+00               0
GRID*               1004               01.8124125635E+014.9928142784E+01+
*       3.3333333333E+00               0
GRID*               1005               01.5002638176E+014.7870012884E+01+
*       3.5333496848E+00               0
GRID*               1006               0-2.959339546E+012.8034126773E+01+
*       1.5573864733E+01               0
GRID*               1007               0-2.383477978E+012.4955702631E+01+
*       1.8274124627E+01               0
GRID*               1008               0-2.724545354E+012.2749788728E+01+
*       1.3847989360E+01               0
GRID*               1009               0-2.908835287E+012.8810874257E+01+
*       1.0220588053E+01               0
GRID*               1010               0-2.567767911E+013.1016788161E+01+
*       1.4646723320E+01               0
GRID*               1011               0-2.332973719E+012.5732450116E+01+
*       1.2920847947E+01               0
GRID*               1012               0-2.927473866E+013.3085567173E+01+
*       1.4646723320E+01               0
GRID*               1013               0-3.319045501E+013.0102905785E+01+
*       1.5573864733E+01               0
GRID*               1014               0-3.534227685E+011.9600478827E+01+
*       1.0045675966E+01               0
GRID*               1015               0-3.664576785E+011.4809742944E+01+
*       4.4718112328E+00               0
GRID*               1016               0-3.430756021E+012.1037476986E+01+
*       5.5738647333E+00               0
GRID*               1017               0-2.858778206E+012.1665083473E+01+
*       7.6164325185E+00               0
GRID*               1018               0-3.092598970E+011.5437349432E+01+
*       6.5143790180E+00               0
GRID*               1019               0-2.989127306E+011.6874347590E+01+
*       2.0425677852E+00               0
GRID*               1020               0-2.600251142E+011.5275424231E+01+
*       1.0560279822E+01               0
GRID*               1021               0-3.041879857E+011.9438553627E+01+
*       1.4091576770E+01               0
GRID*               1022               0-2.466018289E+011.6360129485E+01+
*       1.6791836664E+01               0
GRID*               1023               0-2.282916639E+011.8586659332E+01+
*       1.0316692412E+01               0
GRID*               1024               0-3.473236302E+012.1139373515E+01+
*       1.5573864733E+01               0
GRID*               1025               0-3.214709238E+011.4749714273E+01+
*       1.8517712037E+01               0
GRID*               1026               0-2.995215856E+011.8477107350E+01+
*       1.8517712037E+01               0
GRID*               1027               0-3.253742920E+012.4866766592E+01+
*       1.5573864733E+01               0
GRID*               1028               0-2.832409422E+013.1693813733E+01+
*       4.6467233199E+00               0
GRID*               1029               0-3.223981057E+012.8711152345E+01+
*       5.5738647333E+00               0
GRID*               1030               0-3.281521513E+013.1261147200E+01+
*       9.5065906951E+00               0
GRID*               1031               0-2.889949878E+013.4243808589E+01+
*       8.5794492817E+00               0
GRID*               1032               0-3.205095649E+013.4144086676E+01+
*       3.9327259618E+00               0
GRID*               1033               0-3.947758872E+011.8982008678E+01+
*       1.5781701023E+01               0
GRID*               1034               0-3.774929491E+012.3670848032E+01+
*       1.1355565756E+01               0
GRID*               1035               0-3.707057065E+011.4911639474E+01+
*       1.4471811233E+01               0
GRID*               1036               0-4.008750255E+011.7443113990E+01+
*       1.0253512255E+01               0
GRID*               1037               0-5.054291413E+013.3812909290E+01+
*       9.1064857549E+00               0
GRID*               1038               0-5.243307014E+013.5840012867E+01+
*       5.3701142806E+00               0
GRID*               1039               0-4.597424511E+013.4601891470E+01+
*       3.7363714743E+00               0
GRID*               1040               0-4.970616501E+013.1022593957E+01+
*       3.7363714743E+00               0
GRID*               1041               0-5.616499004E+013.2260715354E+01+
*       5.3701142806E+00               0
GRID*               1042               0-5.032873611E+012.8273824304E+01+
*       8.6400608759E+00               0
GRID*               1043               0-4.953395186E+012.2743171955E+01+
*       1.0685390424E+01               0
GRID*               1044               0-4.328930486E+012.7044135544E+01+
*       9.5180724970E+00               0
GRID*               1045               0-4.710195554E+012.7455495683E+01+
*       1.3736371474E+01               0
GRID*               1046               0-5.334660255E+012.3154532094E+01+
*       1.4903689402E+01               0
GRID*               1047               0-4.630717130E+012.1924843334E+01+
*       1.5781701023E+01               0
GRID*               1048               0-4.388895668E+014.0459651155E+01+
*       8.2133700232E+00               0
GRID*               1049               05.9622739234E+013.7941203252E+01+
*       1.0993611786E+01               0
GRID*               1050               05.8830541240E+013.2540628097E+01+
*       1.6440528064E+01               0
GRID*               1051               06.3140571461E+013.8520883595E+01+
*       1.4553083722E+01               0
GRID*               1052               06.1304343089E+014.2919727973E+01+
*       1.4553083722E+01               0
GRID*               1053               05.6994312867E+013.6939472474E+01+
*       1.6440528064E+01               0
GRID*               1054               06.5548197885E+013.8214869506E+01+
*       9.6157159369E+00               0
GRID*               1055               06.4755999890E+013.2814294351E+01+
*       1.5062632215E+01               0
GRID*               1056               06.1238167663E+013.2234614008E+01+
*       1.1503160279E+01               0
GRID*               1057               05.9731693293E+014.4029132788E+01+
*       9.5046962026E+00               0
GRID*               1058               05.7103266927E+014.3027402010E+01+
*       1.4951612480E+01               0
GRID*               1059               06.3961220523E+014.6682784078E+01+
*       1.4553083722E+01               0
GRID*               1060               05.9760144361E+014.6790458116E+01+
*       1.4951612480E+01               0
GRID*               1061               06.5834889574E+014.9655232630E+01+
*       9.5530361913E+00               0
GRID*               1062               06.1633813411E+014.9762906668E+01+
*       9.9515649497E+00               0
GRID*               1063               06.5863340641E+015.2416557958E+01+
*       1.4999952469E+01               0
GRID*               1064               07.0869024038E+014.3774151639E+01+
*       1.4999933054E+01               0
GRID*               1065               06.8799491073E+014.8375349298E+01+
*       1.4999933054E+01               0
GRID*               1066               06.8771040005E+014.5614023971E+01+
*       9.5530167759E+00               0
GRID*               1067               06.6030753488E+014.2081586419E+01+
*       1.4553083722E+01               0
GRID*               1068               0-3.614477205E+01-4.679117004E+01+
*       6.5213909338E+00               0
GRID*               1069               0-3.575346812E+01-4.976508486E+01+
*       9.8547413029E+00               0
GRID*               1070               0-3.575320073E+01-4.976543334E+01+
*       6.5213738874E+00               0
GRID*               1071               06.8102673357E+013.7058557978E+01+
*       5.0626322148E+00               0
GRID*               1072               06.6487244928E+014.2765147222E+01+
*       4.5530837221E+00               0
GRID*               1073               07.1227427839E+014.1264399876E+01+
*       9.5530209851E+00               0
GRID*               1074               07.2842856268E+013.5557810632E+01+
*       1.0062569478E+01               0
GRID*               1075               07.3781903312E+014.0108088348E+01+
*       4.9999372630E+00               0
GRID*               1076               06.7646181917E+013.6374997175E+01+
*       1.5062632215E+01               0
GRID*               1077               07.3325411872E+013.9424527545E+01+
*       1.4999937263E+01               0
GRID*               1078               0-6.752440223E+01-2.700961141E+01+
*       8.9735263644E+00               0
GRID*               1079               0-7.270539506E+01-3.274810657E+01+
*       9.0570829570E+00               0
GRID*               1080               0-7.541758883E+01-2.832194391E+01+
*       9.9163329630E+00               0
GRID*               1081               0-7.197306860E+01-2.452091855E+01+
*       4.9163881852E+00               0
GRID*               1082               0-6.926087484E+01-2.894708121E+01+
*       4.0571381792E+00               0
GRID*               1083               0-7.715406143E+01-3.025941371E+01+
*       4.9999447778E+00               0
GRID*               1084               0-7.217833181E+01-1.833969648E+01+
*       1.0134157548E+01               0
GRID*               1085               0-7.535489600E+01-1.578618953E+01+
*       5.2177693626E+00               0
GRID*               1086               0-7.341316019E+01-2.002994179E+01+
*       4.9163881852E+00               0
GRID*               1087               0-7.709623631E+01-2.361708442E+01+
*       9.9163529843E+00               0
GRID*               1088               0-7.903797212E+01-1.937333216E+01+
*       1.0217734162E+01               0
GRID*               1089               0-8.027280049E+01-2.106357747E+01+
*       4.9999647991E+00               0
GRID*               1090               0-6.438224486E+01-2.972441494E+01+
*       4.0571381792E+00               0
GRID*               1091               0-6.709443862E+01-2.529825227E+01+
*       4.9163881852E+00               0
GRID*               1092               0-6.595062257E+01-2.068459809E+01+
*       1.0013646598E+01               0
GRID*               1093               0-6.323842881E+01-2.511076075E+01+
*       9.1543965923E+00               0
GRID*               1094               0-6.280846520E+01-2.339940161E+01+
*       5.0972584131E+00               0
GRID*               1095               0-7.065343490E+01-1.665672855E+01+
*       5.2177693626E+00               0
GRID*               1096               0-6.871169909E+01-2.090048081E+01+
*       4.9163881852E+00               0
GRID*               1097               0-4.892496727E+005.6793887183E+01+
*       1.4819776688E+01               0
GRID*               1098               07.9344202193E+005.9348295142E+01+
*       4.5780871318E+00               0
GRID*               1099               03.7592206240E+005.5789369235E+01+
*       5.0805324265E+00               0
GRID*               1100               02.5202091900E+006.0816820227E+01+
*       5.0805324265E+00               0
GRID*               1101               06.6954087853E+006.4375746134E+01+
*       4.5780871318E+00               0
GRID*               1102               04.6565982561E+006.9704890057E+01+
*       8.7040321042E+00               0
GRID*               1103               04.8139866084E-016.6145964150E+01+
*       9.2064773989E+00               0
GRID*               1104               04.3013705346E+006.3852843625E+01+
*       1.5080532427E+01               0
GRID*               1105               08.4765701299E+006.7411769532E+01+
*       1.4578087132E+01               0
GRID*               1106               03.1314864481E+007.1742188467E+01+
*       1.4125944972E+01               0
GRID*               1107               0-3.974596129E+007.1868453101E+01+
*       8.8312599227E+00               0
GRID*               1108               0-1.358491826E+006.8331866913E+01+
*       1.4125944972E+01               0
GRID*               1109               0-6.015008203E+002.0589009463E+01+
*       1.5069738186E+00               0
GRID*               1110               0-1.095829491E+012.3270457896E+01+
*       5.1796755559E+00               0
GRID*               1111               0-1.146527917E+012.2675064804E+01+
*       7.9996056189E-01               0
GRID*               1112               0-1.028025118E+011.8187596338E+01+
*       -2.052477068E+00               0
GRID*               1113               0-9.773266915E+001.8782989430E+01+
*       2.3272379260E+00               0
GRID*               1114               0-1.522353789E+012.0869044771E+01+
*       1.6202246694E+00               0
GRID*               1115               0-3.858783163E+002.1460694217E+01+
*       -3.083180315E+00               0
GRID*               1116               0-5.975906824E-011.8963853490E+01+
*       -3.789684501E+00               0
GRID*               1117               0-3.260799988E+001.7496775643E+01+
*       -3.579245362E+00               0
GRID*               1118               0-5.543779249E+001.9649017024E+01+
*       -6.436370588E+00               0
GRID*               1119               0-2.880569943E+002.1116094871E+01+
*       -6.646809727E+00               0
GRID*               1120               0-2.282586768E+001.7152176296E+01+
*       -7.142874774E+00               0
GRID*               1121               0-6.131002697E+001.6925912213E+01+
*       -7.220959131E-01               0
GRID*               1122               0-5.624018431E+001.7521305306E+01+
*       3.6576190809E+00               0
GRID*               1123               0-9.889261409E+001.5119892180E+01+
*       9.8168194404E-02               0
GRID*               1124               0-1.248215094E+011.6166097378E+01+
*       -5.616106480E+00               0
GRID*               1125               0-8.723892225E+001.7972117411E+01+
*       -6.436370588E+00               0
GRID*               1126               0-6.131083205E+001.6925886051E+01+
*       -3.579230932E+00               0
GRID*               1127               0-9.889341917E+001.5119866018E+01+
*       -2.758966824E+00               0
GRID*               1128               0-8.332982961E+001.4904387091E+01+
*       -7.142860344E+00               0
GRID*               1129               0-9.174785326E+002.1009364102E+01+
*       -6.436370588E+00               0
GRID*               1130               03.5024517172E+01-2.647155001E+01+
*       1.5350118911E+01               0
GRID*               1131               03.6473639435E+01-2.876967669E+00+
*       7.4187060262E+00               0
GRID*               1132               03.7845010329E+01-8.779065245E+00+
*       9.8261998933E+00               0
GRID*               1133               03.5515325528E+01-4.512452692E+00+
*       1.3248339253E+01               0
GRID*               1134               02.6732650058E+01-2.599613316E+01+
*       5.7963599521E+00               0
GRID*               1135               02.1549919276E+01-2.705438509E+01+
*       2.5953421906E+00               0
GRID*               1136               02.0375449785E+01-2.560422042E+01+
*       8.3917021427E+00               0
GRID*               1137               02.5216282857E+01-1.993905044E+01+
*       7.0083897189E+00               0
GRID*               1138               02.6390752348E+01-2.138921511E+01+
*       1.2120297668E+00               0
GRID*               1139               02.0033552075E+01-2.099730237E+01+
*       3.8073719574E+00               0
GRID*               1140               02.1246843612E+01-1.220594487E+01+
*       7.9620435563E+00               0
GRID*               1141               02.9576386525E+01-1.485027057E+01+
*       5.3932175981E+00               0
GRID*               1142               02.0943715587E+01-1.265881755E+01+
*       1.4656828822E+01               0
GRID*               1143               02.4571257121E+01-1.578500506E+01+
*       9.1188447993E+00               0
GRID*               1144               04.1198036165E+01-1.705236092E+01+
*       1.0204395096E+01               0
GRID*               1145               04.2829949322E+01-2.119880852E+01+
*       1.5350118911E+01               0
GRID*               1146               04.6512732628E+01-1.821239081E+01+
*       1.6023207265E+01               0
GRID*               1147               03.9593084366E+01-1.552843864E+01+
*       1.4181187831E+01               0
GRID*               1148               04.0486614469E+01-1.521645127E+01+
*       4.1811878312E+00               0
GRID*               1149               04.7406262730E+01-1.790040343E+01+
*       6.0232072645E+00               0
GRID*               1150               03.7621396063E+01-1.842671566E+01+
*       4.1811878312E+00               0
GRID*               1151               03.9689054430E+01-1.267934461E+01+
*       8.1833623546E+00               0
GRID*               1152               04.6608702692E+01-1.536329678E+01+
*       1.0025381788E+01               0
GRID*               1153               04.5897280996E+01-1.352738712E+01+
*       4.0021745234E+00               0
GRID*               1154               04.5003750893E+01-1.383937450E+01+
*       1.4002174523E+01               0
GRID*               1155               03.5767611140E+01-1.318493532E+01+
*       4.1811878312E+00               0
GRID*               1156               03.9334233566E+01-7.595591809E+00+
*       5.6450120621E+00               0
GRID*               1157               04.3255676856E+01-7.090001099E+00+
*       9.6471865855E+00               0
GRID*               1158               04.1178277667E+01-1.149587117E+01+
*       4.0021745234E+00               0
GRID*               1159               02.9521328950E+01-2.240827304E+01+
*       5.7963599521E+00               0
GRID*               1160               02.9179431240E+01-1.780135498E+01+
*       1.2120297668E+00               0
GRID*               1161               0-3.603708168E+01-5.493627424E+01+
*       1.6666683702E+01               0
GRID*               1162               0-3.952988005E+01-5.341823316E+01+
*       1.3188057600E+01               0
GRID*               1163               0-3.382260112E+01-5.534369496E+01+
*       1.1333990501E+01               0
GRID*               1164               0-3.759901306E+01-5.899684326E+01+
*       1.4667306798E+01               0
GRID*               1165               0-3.731539949E+01-5.382565387E+01+
*       7.8553643989E+00               0
GRID*               1166               0-4.300273202E+01-4.974524639E+01+
*       1.3188057600E+01               0
GRID*               1167               0-3.834225874E+01-4.968037039E+01+
*       1.3188057600E+01               0
GRID*               1168               0-4.605241503E+01-1.820738177E+01+
*       1.0152166603E+01               0
GRID*               1169               0-4.471852187E+01-2.042425095E+01+
*       1.5023314553E+01               0
GRID*               1170               0-4.900994374E+01-1.858480221E+01+
*       1.5128852050E+01               0
GRID*               1171               0-4.873117918E+01-2.160742099E+01+
*       1.1020619093E+01               0
GRID*               1172               0-4.443975730E+01-2.344686972E+01+
*       1.0915081596E+01               0
GRID*               1173               0-4.739728601E+01-2.382429016E+01+
*       1.5891767043E+01               0
GRID*               1174               0-4.016119261E+01-5.931683323E+01+
*       1.0005709737E+01               0
GRID*               1175               0-4.237567317E+01-5.890941252E+01+
*       1.5338402939E+01               0
GRID*               1176               0-4.282308877E+01-6.335428294E+01+
*       1.5338402939E+01               0
GRID*               1177               0-3.804642866E+01-6.344171368E+01+
*       1.4667306798E+01               0
GRID*               1178               0-3.643960513E+01-5.945033215E+01+
*       4.6673067984E+00               0
GRID*               1179               0-4.121626524E+01-5.936290141E+01+
*       5.3384029388E+00               0
GRID*               1180               0-4.387883345E+01-5.617672058E+01+
*       5.3384029388E+00               0
GRID*               1181               0-3.910217334E+01-5.626415132E+01+
*       4.6673067984E+00               0
GRID*               1182               0-4.716382653E+01-6.572873120E+01+
*       1.0338467718E+01               0
GRID*               1183               0-4.885818347E+01-6.711630719E+01+
*       1.5000064779E+01               0
GRID*               1184               0-4.663220965E+01-6.061697848E+01+
*       1.5338402939E+01               0
GRID*               1185               0-5.111950050E+01-6.267836371E+01+
*       1.0338440300E+01               0
GRID*               1186               0-5.281385744E+01-6.406593970E+01+
*       1.5000037361E+01               0
GRID*               1187               06.2085616187E+00-2.088081808E+01+
*       -4.544710140E+00               0
GRID*               1188               09.5929848121E+00-2.094348708E+01+
*       -6.945518466E+00               0
GRID*               1189               05.8057840172E+00-2.318684243E+01+
*       -7.599191674E+00               0
GRID*               1190               02.8689688401E+00-2.134189981E+01+
*       -7.599191674E+00               0
GRID*               1191               06.6561696351E+00-1.909854446E+01+
*       -6.945518466E+00               0
GRID*               1192               03.7458980855E+00-2.142434248E+01+
*       8.7437994124E-01               0
GRID*               1193               05.4051871259E+00-1.679136120E+01+
*       4.1878441414E+00               0
GRID*               1194               04.0806498641E+00-1.849119215E+01+
*       -1.884919147E+00               0
GRID*               1195               01.2104930273E+00-1.906203006E+01+
*       -1.884923930E+00               0
GRID*               1196               02.5350302891E+00-1.736219911E+01+
*       4.1878393579E+00               0
GRID*               1197               0-9.418751973E-01-2.173929558E+01+
*       -2.951159237E+00               0
GRID*               1198               03.8266206442E-01-2.003946463E+01+
*       3.1216040517E+00               0
GRID*               1199               0-2.152742994E+00-1.767715220E+01+
*       3.6230018004E-01               0
GRID*               1200               0-6.046243311E+01-2.869213067E+01+
*       8.9968464144E+00               0
GRID*               1201               0-5.534644443E+01-2.772493132E+01+
*       4.9397082352E+00               0
GRID*               1202               0-5.969621979E+01-3.046857473E+01+
*       4.0571381792E+00               0
GRID*               1203               0-6.003246950E+01-2.698077153E+01+
*       4.9397082352E+00               0
GRID*               1204               0-6.204928008E+01-3.435152418E+01+
*       1.4057138179E+01               0
GRID*               1205               0-6.062658349E+01-3.832602679E+01+
*       1.4857648933E+01               0
GRID*               1206               0-6.338951188E+01-3.541027669E+01+
*       8.9147871120E+00               0
GRID*               1207               0-5.769950472E+01-3.160788077E+01+
*       1.4939708235E+01               0
GRID*               1208               0-5.903973652E+01-3.266663328E+01+
*       9.7973571680E+00               0
GRID*               1209               0-5.888865345E+01-2.236711735E+01+
*       1.0036966648E+01               0
GRID*               1210               0-6.746764019E+01-3.337007387E+01+
*       4.0571381792E+00               0
GRID*               1211               0-6.604494360E+01-3.734457648E+01+
*       4.8576489328E+00               0
GRID*               1212               0-7.050138382E+01-3.723092265E+01+
*       9.0570711293E+00               0
GRID*               1213               0-7.315681554E+01-3.916522244E+01+
*       4.9999329501E+00               0
GRID*               1214               0-6.907868723E+01-4.120542526E+01+
*       9.8575818829E+00               0
GRID*               1215               0-6.581340142E+01-3.739950229E+01+
*       1.4857648933E+01               0
GRID*               1216               0-6.723609802E+01-3.342499967E+01+
*       1.4057138179E+01               0
GRID*               1217               0-7.292527336E+01-3.922014825E+01+
*       1.4999932950E+01               0
GRID*               1218               0-6.263514541E+01-3.396671978E+01+
*       4.0571381792E+00               0
GRID*               1219               0-6.121244881E+01-3.794122239E+01+
*       4.8576489328E+00               0
GRID*               1220               0-4.577911269E+014.2486754732E+01+
*       4.4769985488E+00               0
GRID*               1221               03.1449434220E+01-7.800989879E+01+
*       1.4999940697E+01               0
GRID*               1222               0-5.854319633E+013.1361275328E+01+
*       1.5370114281E+01               0
GRID*               1223               0-5.832901831E+012.5822190342E+01+
*       1.4903689402E+01               0
GRID*               1224               0-5.678756114E+012.9511945701E+01+
*       1.0273803682E+01               0
GRID*               1225               0-5.415296566E+013.4316486341E+01+
*       1.5370114281E+01               0
GRID*               1226               0-5.393878764E+012.8777401354E+01+
*       1.4903689402E+01               0
GRID*               1227               0-5.002344333E+011.2840692997E+01+
*       4.4823075810E+00               0
GRID*               1228               0-5.425844117E+011.3341309858E+01+
*       5.0846380529E+00               0
GRID*               1229               0-5.301181779E+011.4284283389E+01+
*       9.5669456339E+00               0
GRID*               1230               0-5.098582268E+011.7098831635E+01+
*       4.4823075810E+00               0
GRID*               1231               0-5.522082052E+011.7599448496E+01+
*       5.0846380529E+00               0
GRID*               1232               0-5.488410427E+012.2193428729E+01+
*       4.9036894016E+00               0
GRID*               1233               0-5.267510153E+011.8878263622E+01+
*       9.3859969826E+00               0
GRID*               1234               0-4.563567028E+011.7648574861E+01+
*       1.0264008604E+01               0
GRID*               1235               0-4.784467302E+012.0963739969E+01+
*       5.7817010226E+00               0
GRID*               1236               0-4.375659954E+017.4629326502E+00+
*       1.5354855262E+01               0
GRID*               1237               0-4.271226486E+011.0827998913E+01+
*       1.5354855262E+01               0
GRID*               1238               0-4.022493948E+017.6308434565E+00+
*       1.5354855262E+01               0
GRID*               1239               0-3.949289382E+011.0203266364E+01+
*       9.8266664946E+00               0
GRID*               1240               0-4.089985552E+011.3997477334E+01+
*       1.4471811233E+01               0
GRID*               1241               0-3.841253015E+011.0800321878E+01+
*       1.4471811233E+01               0
GRID*               1242               0-4.944832097E+011.8059935001E+01+
*       1.4482307581E+01               0
GRID*               1243               0-5.488729286E+011.3242226019E+01+
*       1.5084638053E+01               0
GRID*               1244               0-5.065229502E+011.2741609158E+01+
*       1.4482307581E+01               0
GRID*               1245               0-5.368331881E+011.8560551862E+01+
*       1.5084638053E+01               0
GRID*               1246               0-4.330687359E+011.8067846539E+01+
*       1.5781701023E+01               0
GRID*               1247               0-3.382233374E+01-5.534404344E+01+
*       8.0006230854E+00               0
GRID*               1248               02.9999247909E+01-6.470952095E+01+
*       1.0228560642E+01               0
GRID*               1249               03.2191587327E+01-6.130289846E+01+
*       5.2486883494E+00               0
GRID*               1250               03.2440719261E+01-6.516445838E+01+
*       4.9798722927E+00               0
GRID*               1251               02.7653993812E+01-6.735152378E+01+
*       4.9798722927E+00               0
GRID*               1252               02.7404861878E+01-6.348996386E+01+
*       5.2486883494E+00               0
GRID*               1253               02.8399262213E+01-7.249903331E+01+
*       1.4979872293E+01               0
GRID*               1254               02.3827806758E+01-7.332247150E+01+
*       1.4973066191E+01               0
GRID*               1255               02.5676924388E+01-6.939451906E+01+
*       9.9529384833E+00               0
GRID*               1256               02.8643562887E+01-7.589429244E+01+
*       9.9798317624E+00               0
GRID*               1257               02.6794445257E+01-7.982224488E+01+
*       1.4999959470E+01               0
GRID*               1258               02.4072107432E+01-7.671773064E+01+
*       9.9730256603E+00               0
GRID*               1259               02.7734548977E+01-6.749894501E+01+
*       1.4979872293E+01               0
GRID*               1260               02.3163093523E+01-6.832238320E+01+
*       1.4973066191E+01               0
GRID*               1261               03.2528544375E+01-6.534109675E+01+
*       1.4979872293E+01               0
GRID*               1262               03.6949072805E+01-6.293251450E+01+
*       1.5082868986E+01               0
GRID*               1263               03.4668908273E+01-6.616249862E+01+
*       1.0062741279E+01               0
GRID*               1264               03.2279412441E+01-6.147953683E+01+
*       1.5248688349E+01               0
GRID*               1265               03.4419776339E+01-6.230093870E+01+
*       1.0331557335E+01               0
GRID*               1266               03.6861247691E+01-6.275587613E+01+
*       5.0828689860E+00               0
GRID*               1267               02.3788151897E+01-7.326231308E+01+
*       4.9730661906E+00               0
GRID*               1268               02.8359607351E+01-7.243887489E+01+
*       4.9798722927E+00               0
GRID*               1269               02.6754790395E+01-7.976208646E+01+
*       4.9999594697E+00               0
GRID*               1270               02.3082538358E+01-6.817496197E+01+
*       4.9730661906E+00               0
GRID*               1271               07.7110394467E+01-2.336840458E+01+
*       1.3438642531E+01               0
GRID*               1272               07.2319332222E+01-2.554417643E+01+
*       1.4918157990E+01               0
GRID*               1273               07.2424682460E+01-2.317043805E+01+
*       8.3568005204E+00               0
GRID*               1274               07.9813482094E+01-2.519968595E+01+
*       8.4386882664E+00               0
GRID*               1275               07.9708131856E+01-2.757342433E+01+
*       1.5000045736E+01               0
GRID*               1276               07.5022419849E+01-2.737545780E+01+
*       9.9182037254E+00               0
GRID*               1277               07.3346618494E+01-2.116040044E+01+
*       1.3438642531E+01               0
GRID*               1278               06.8555556249E+01-2.333617229E+01+
*       1.4918157990E+01               0
GRID*               1279               08.1438067301E+01-1.781638879E+01+
*       1.5000024723E+01               0
GRID*               1280               08.1115509695E+01-2.278042115E+01+
*       1.5000024723E+01               0
GRID*               1281               07.7432952072E+01-1.840437223E+01+
*       1.3438642531E+01               0
GRID*               1282               08.1220859934E+01-2.040668277E+01+
*       8.4386672534E+00               0
GRID*               1283               0-3.614477205E+01-4.679117004E+01+
*       9.8547242671E+00               0
GRID*               1284               07.5419806930E+01-1.232857555E+01+
*       9.4191727062E+00               0
GRID*               1285               07.5637014297E+01-9.738281575E+00+
*       1.5980530176E+01               0
GRID*               1286               08.2072691296E+01-1.548450133E+01+
*       8.4386497634E+00               0
GRID*               1287               08.0276753521E+01-6.818410679E+00+
*       1.0980537408E+01               0
GRID*               1288               08.2289898663E+01-1.289420735E+01+
*       1.5000007233E+01               0
GRID*               1289               07.8138308417E+01-1.880663684E+01+
*       3.4386425307E+00               0
GRID*               1290               07.6342370641E+01-1.014054619E+01+
*       5.9805301755E+00               0
GRID*               1291               08.2995255008E+01-1.329647196E+01+
*       5.0000072328E+00               0
GRID*               1292               04.5972141053E+014.8474625791E+01+
*       1.5086639742E+01               0
GRID*               1293               04.9602445392E+015.3617424233E+01+
*       1.5672073145E+01               0
GRID*               1294               04.2551511945E+015.3110098661E+01+
*       1.6551286312E+01               0
GRID*               1295               05.8506172485E+015.2478725436E+01+
*       1.5672073145E+01               0
GRID*               1296               05.7002232171E+015.9131287380E+01+
*       1.5672073145E+01               0
GRID*               1297               06.2485751268E+015.6096651843E+01+
*       1.5000009059E+01               0
GRID*               1298               05.3965756690E+015.3414187939E+01+
*       1.5672073145E+01               0
GRID*               1299               05.5219728566E+014.7725920619E+01+
*       1.4951612480E+01               0
GRID*               1300               02.2129912636E+01-7.872979401E+01+
*       1.4999959470E+01               0
GRID*               1301               01.9163274138E+01-7.223002063E+01+
*       1.4973066191E+01               0
GRID*               1302               01.9240860645E+01-7.798762826E+01+
*       9.9730464605E+00               0
GRID*               1303               01.7298665849E+01-7.999969164E+01+
*       1.4999980270E+01               0
GRID*               1304               03.3298551850E+01-7.408194635E+01+
*       9.9798129898E+00               0
GRID*               1305               01.9491055197E+01-6.546615679E+01+
*       1.0202847238E+01               0
GRID*               1306               02.3813378718E+01-6.078115868E+01+
*       1.0478469397E+01               0
GRID*               1307               02.5427792454E+01-6.553295915E+01+
*       1.0221754540E+01               0
GRID*               1308               02.1468124621E+01-6.342316151E+01+
*       5.2297810476E+00               0
GRID*               1309               01.3692682914E+01-6.794246145E+01+
*       1.0076583904E+01               0
GRID*               1310               01.5307096650E+01-7.269426192E+01+
*       9.8198690474E+00               0
GRID*               1311               01.7978566083E+01-6.777411648E+01+
*       1.4973066191E+01               0
GRID*               1312               01.6364152346E+01-6.302231601E+01+
*       1.5229781048E+01               0
GRID*               1313               01.2180193799E+01-7.025042114E+01+
*       1.4846802857E+01               0
GRID*               1314               02.1548679786E+01-6.357058274E+01+
*       1.5229781048E+01               0
GRID*               1315               04.3907811705E+011.5044887204E+01+
*       8.9221412005E+00               0
GRID*               1316               04.8540511579E+011.6899115682E+01+
*       4.9521779008E+00               0
GRID*               1317               04.4683538875E+011.7912844958E+01+
*       3.9699632997E+00               0
GRID*               1318               04.5663822496E+011.9903227144E+01+
*       9.1510128954E+00               0
GRID*               1319               04.6439549666E+012.2771184897E+01+
*       4.1988349946E+00               0
GRID*               1320               02.7970366814E+011.9787200113E+01+
*       1.5131849778E+00               0
GRID*               1321               02.9333380702E+011.9810638977E+01+
*       8.1890470414E+00               0
GRID*               1322               03.2057599829E+011.6458651603E+01+
*       5.4831482776E+00               0
GRID*               1323               03.3420613717E+011.6482090467E+01+
*       1.2159010341E+01               0
GRID*               1324               04.2073959390E+012.3711815107E+01+
*       4.1988349946E+00               0
GRID*               1325               04.0317948598E+011.8853475167E+01+
*       3.9699632997E+00               0
GRID*               1326               04.2224540892E+011.7492785917E+01+
*       1.3969963300E+01               0
GRID*               1327               04.3980551683E+012.2351125856E+01+
*       1.4198834995E+01               0
GRID*               1328               04.6081513596E+011.6479056641E+01+
*       1.4952177901E+01               0
GRID*               1329               03.2976573784E+012.1831315040E+01+
*       1.0000000000E+01               0
GRID*               1330               03.0433581515E+011.8926240517E+01+
*       1.8189047041E+01               0
GRID*               1331               03.7063806799E+011.8502766530E+01+
*       1.3969963300E+01               0
GRID*               1332               06.5706152693E+01-3.256255116E+01+
*       1.1061662391E+01               0
GRID*               1333               06.0560518800E+01-3.693270717E+01+
*       9.5710840930E+00               0
GRID*               1334               06.6328320989E+01-3.780985212E+01+
*       1.0729316594E+01               0
GRID*               1335               06.6802653126E+01-3.482203285E+01+
*       1.6109947446E+01               0
GRID*               1336               06.1034850936E+01-3.394488790E+01+
*       1.4951714945E+01               0
GRID*               1337               06.1657019233E+01-3.919218886E+01+
*       1.4619369148E+01               0
GRID*               1338               06.8865802581E+01-3.150450107E+01+
*       6.1099474458E+00               0
GRID*               1339               06.6111263866E+01-3.481301097E+01+
*       6.1099474458E+00               0
GRID*               1340               06.0343461676E+01-3.393586602E+01+
*       4.9517149450E+00               0
GRID*               1341               06.0965629973E+01-3.918316698E+01+
*       4.6193691480E+00               0
GRID*               1342               07.0517316691E+01-3.663469899E+01+
*       1.6109947446E+01               0
GRID*               1343               06.5371682798E+01-4.100485501E+01+
*       1.4619369148E+01               0
GRID*               1344               07.2541632719E+01-4.037314265E+01+
*       1.1110014391E+01               0
GRID*               1345               07.1584994528E+01-4.356814553E+01+
*       1.5000066945E+01               0
GRID*               1346               06.7395998826E+01-4.474329866E+01+
*       9.6194360932E+00               0
GRID*               1347               07.2594554612E+01-3.264712181E+01+
*       6.1099474458E+00               0
GRID*               1348               07.0674387278E+01-2.860037871E+01+
*       4.9181579897E+00               0
GRID*               1349               06.9553787548E+01-2.939295300E+01+
*       1.1028105435E+01               0
GRID*               1350               07.6942587182E+01-3.142220090E+01+
*       1.1109993182E+01               0
GRID*               1351               07.8063186912E+01-3.062962661E+01+
*       5.0000457358E+00               0
GRID*               1352               07.3994722493E+01-3.835777663E+01+
*       5.0000627364E+00               0
GRID*               1353               07.6118620283E+01-3.523094426E+01+
*       5.0000627364E+00               0
GRID*               1354               07.0470656822E+01-3.577395418E+01+
*       6.1099474458E+00               0
GRID*               1355               07.4998020553E+01-3.602351855E+01+
*       1.1110010182E+01               0
GRID*               1356               0-2.935615893E+01-3.806490419E+01+
*       1.6666683710E+01               0
GRID*               1357               06.5325022930E+01-4.014411020E+01+
*       4.6193691480E+00               0
GRID*               1358               07.1538334659E+01-4.270740072E+01+
*       5.0000669452E+00               0
GRID*               1359               06.2837395347E+012.5311964007E+01+
*       5.0319530765E+00               0
GRID*               1360               06.7683707089E+012.4175298840E+01+
*       5.0826699979E+00               0
GRID*               1361               06.5279199741E+012.4627676998E+01+
*       1.0114623074E+01               0
GRID*               1362               06.8908964639E+011.9543274109E+01+
*       5.0826699979E+00               0
GRID*               1363               05.8655974256E+012.6136423964E+01+
*       1.5031953076E+01               0
GRID*               1364               05.6095884763E+012.9234726759E+01+
*       1.6440528064E+01               0
GRID*               1365               05.7872798505E+012.8862644959E+01+
*       1.1472481141E+01               0
GRID*               1366               05.4450265986E+012.6631515345E+01+
*       1.5031953076E+01               0
GRID*               1367               05.1890176492E+012.9729818140E+01+
*       1.6440528064E+01               0
GRID*               1368               06.1390630733E+012.9442325302E+01+
*       1.5031953076E+01               0
GRID*               1369               06.3798257156E+012.9136311213E+01+
*       1.0094585291E+01               0
GRID*               1370               05.8950069959E+013.3164524878E+01+
*       6.4405280641E+00               0
GRID*               1371               06.1510159453E+013.0066222084E+01+
*       5.0319530765E+00               0
GRID*               1372               05.8140921333E+012.6422470726E+01+
*       5.0319530765E+00               0
GRID*               1373               05.5580831840E+012.9520773520E+01+
*       6.4405280641E+00               0
GRID*               1374               05.1997874291E+012.5769819262E+01+
*       9.2307880711E+00               0
GRID*               1375               04.9437784798E+012.8868122056E+01+
*       1.0639363059E+01               0
GRID*               1376               04.9705907626E+012.6427947823E+01+
*       4.1988349946E+00               0
GRID*               1377               05.5557475977E+012.3105559395E+01+
*       5.2699328625E+00               0
GRID*               1378               06.4875528610E+013.3438191132E+01+
*       5.0626322148E+00               0
GRID*               1379               05.1515390848E+011.6580838716E+01+
*       1.0222110763E+01               0
GRID*               1380               05.3283852722E+011.4747377355E+01+
*       5.2699328625E+00               0
GRID*               1381               04.9533246283E+011.2197696568E+01+
*       4.9521779008E+00               0
GRID*               1382               05.2291118018E+011.9448796470E+01+
*       5.2699328625E+00               0
GRID*               1383               04.6979413886E+011.1189837209E+01+
*       1.4952177901E+01               0
GRID*               1384               04.3526982630E+016.8010309261E+00+
*       1.3647042044E+01               0
GRID*               1385               04.4312353153E+019.6423516458E+00+
*       8.5992199450E+00               0
GRID*               1386               04.8610753334E+018.1636291533E+00+
*       1.1618844567E+01               0
GRID*               1387               04.7825382812E+015.3223084336E+00+
*       1.6666666667E+01               0
GRID*               1388               04.5158322078E+013.7748228705E+00+
*       1.0313708711E+01               0
GRID*               1389               05.0383479164E+011.3859695548E+01+
*       1.4952177901E+01               0
GRID*               1390               05.0990757638E+019.9898685150E+00+
*       1.1618861611E+01               0
GRID*               1391               06.5882248908E+01-5.040402979E+01+
*       5.0000475291E+00               0
GRID*               1392               04.2774083041E+011.3580921829E+01+
*       1.4952177901E+01               0
GRID*               1393               03.9321651785E+019.1921155465E+00+
*       1.3647042044E+01               0
GRID*               1394               03.8917110337E+011.4594651105E+01+
*       1.3969963300E+01               0
GRID*               1395               04.0455380449E+011.0656080922E+01+
*       7.6170053439E+00               0
GRID*               1396               05.3837646805E+012.0033767283E+01+
*       1.5269932863E+01               0
GRID*               1397               05.0087040366E+011.7484086496E+01+
*       1.4952177901E+01               0
GRID*               1398               04.6015252278E+012.6636992442E+01+
*       1.4198834995E+01               0
GRID*               1399               04.8116214191E+012.0764923227E+01+
*       1.4952177901E+01               0
GRID*               1400               0-1.372183706E+01-1.108470051E+01+
*       -3.657220199E+00               0
GRID*               1401               0-1.727192780E+01-1.460575727E+01+
*       -6.514352435E+00               0
GRID*               1402               0-1.415674476E+01-1.412739850E+01+
*       -7.142867764E+00               0
GRID*               1403               0-1.087352782E+01-1.370653609E+01+
*       -1.615001209E+00               0
GRID*               1404               0-1.398871086E+01-1.418489487E+01+
*       -9.864858802E-01               0
GRID*               1405               0-1.442361857E+01-1.722759285E+01+
*       -4.472133445E+00               0
GRID*               1406               0-1.676687787E+01-1.114046775E+01+
*       -6.514352435E+00               0
GRID*               1407               0-1.365169483E+01-1.066210897E+01+
*       -7.142867764E+00               0
GRID*               1408               0-1.789583240E+01-7.708830779E+00+
*       -6.514352435E+00               0
GRID*               1409               0-1.998584061E+01-5.027159376E+00+
*       -4.569549721E+00               0
GRID*               1410               0-1.892702830E+01-8.881387888E+00+
*       -1.083902156E+00               0
GRID*               1411               0-1.534757680E+01-8.651700263E+00+
*       -3.657204417E+00               0
GRID*               1412               0-1.640638911E+01-4.797471752E+00+
*       -7.142851982E+00               0
GRID*               1413               0-1.743758501E+01-5.970028861E+00+
*       -1.712401703E+00               0
GRID*               1414               0-1.894265939E+01-1.626835051E+01+
*       -4.847685689E+00               0
GRID*               1415               0-1.609435015E+01-1.889018609E+01+
*       -2.805466699E+00               0
GRID*               1416               0-2.238032710E+01-7.012641728E+00+
*       -4.569549721E+00               0
GRID*               1417               0-2.029031889E+01-9.694313130E+00+
*       -6.514352435E+00               0
GRID*               1418               01.5528311342E+015.2976437173E+01+
*       1.4831110168E+01               0
GRID*               1419               01.3529355410E+015.6651222644E+01+
*       1.4596370739E+01               0
GRID*               1420               01.8315885599E+015.5306924493E+01+
*       1.4596370739E+01               0
GRID*               1421               09.9119739224E+007.0232969520E+01+
*       8.9344355805E+00               0
GRID*               1422               01.1160484625E+017.2313565101E+01+
*       4.3563484487E+00               0
GRID*               1423               01.1250192640E+016.7455066703E+01+
*       4.5780871318E+00               0
GRID*               1424               07.5401787774E+006.8885255136E+01+
*       4.5780871318E+00               0
GRID*               1425               07.4504707619E+007.3743753534E+01+
*       4.3563484487E+00               0
GRID*               1426               01.7241693739E+016.3448539844E+01+
*       1.0936576327E+01               0
GRID*               1427               02.1396929149E+015.8311907481E+01+
*       1.0954859934E+01               0
GRID*               1428               01.9518340285E+016.0605595324E+01+
*       6.3584891952E+00               0
GRID*               1429               09.3020813718E+005.1881175460E+01+
*       4.8311101678E+00               0
GRID*               1430               01.4517776084E+016.8246258486E+01+
*       9.7729603758E+00               0
GRID*               1431               01.6794422630E+016.5403313967E+01+
*       5.1948732440E+00               0
GRID*               1432               01.5766286786E+017.0326854067E+01+
*       5.1948732440E+00               0
GRID*               1433               0-4.523407511E+012.9943335792E+01+
*       3.7363714743E+00               0
GRID*               1434               0-5.147872212E+012.5642372202E+01+
*       4.9036894016E+00               0
GRID*               1435               0-5.595081202E+012.6721630367E+01+
*       4.9036894016E+00               0
GRID*               1436               0-4.443929087E+012.4412683442E+01+
*       5.7817010226E+00               0
GRID*               1437               0-5.691009937E+011.9378880483E+01+
*       9.9883274544E+00               0
GRID*               1438               0-5.939129633E+012.3031682811E+01+
*       4.9036894016E+00               0
GRID*               1439               0-5.972801259E+011.8437702579E+01+
*       5.0846380529E+00               0
GRID*               1440               0-4.107271824E+012.8913410063E+01+
*       3.7363714743E+00               0
GRID*               1441               0-4.027793400E+012.3382757714E+01+
*       5.7817010226E+00               0
GRID*               1442               0-6.373410342E+014.3016577949E+01+
*       5.2705383757E+00               0
GRID*               1443               0-6.925710126E+013.8939814211E+01+
*       6.6192112446E+00               0
GRID*               1444               0-6.568995916E+014.0747206305E+01+
*       1.1889749620E+01               0
GRID*               1445               0-6.904455577E+014.6320942179E+01+
*       5.0000609430E+00               0
GRID*               1446               0-7.100041151E+014.4051570536E+01+
*       1.1619272188E+01               0
GRID*               1447               0-5.841864203E+012.0948020157E+01+
*       1.4903689402E+01               0
GRID*               1448               0-6.344880079E+012.2461529309E+01+
*       1.5076387439E+01               0
GRID*               1449               0-6.160354188E+012.5486369867E+01+
*       9.9800768409E+00               0
GRID*               1450               0-5.875535829E+011.6354039924E+01+
*       1.5084638053E+01               0
GRID*               1451               0-6.194025814E+012.0892389635E+01+
*       1.0161025492E+01               0
GRID*               1452               06.8644568898E+012.7999646046E+01+
*       1.0145302213E+01               0
GRID*               1453               06.9542607486E+013.1923590045E+01+
*       1.5062632215E+01               0
GRID*               1454               07.1023550071E+012.7414955829E+01+
*       1.5082669998E+01               0
GRID*               1455               07.6268365483E+012.6447858766E+01+
*       1.0082624262E+01               0
GRID*               1456               07.4787422898E+013.0956492982E+01+
*       1.0062586479E+01               0
GRID*               1457               07.7166404071E+013.0371802765E+01+
*       1.4999954264E+01               0
GRID*               1458               06.6202764504E+012.8683933056E+01+
*       5.0626322148E+00               0
GRID*               1459               06.9632335881E+013.2194502384E+01+
*       5.0626322148E+00               0
GRID*               1460               07.1113278466E+012.7685868169E+01+
*       5.0826699979E+00               0
GRID*               1461               06.6314081376E+012.8513175868E+01+
*       1.5062632215E+01               0
GRID*               1462               06.7795023961E+012.4004541653E+01+
*       1.5082669998E+01               0
GRID*               1463               06.4639581671E+01-2.590146688E+01+
*       1.4918157990E+01               0
GRID*               1464               06.4796922311E+01-3.148714749E+01+
*       1.4951714945E+01               0
GRID*               1465               07.0564724501E+01-3.236429244E+01+
*       1.6109947446E+01               0
GRID*               1466               06.8644557167E+01-2.831754934E+01+
*       1.4918157990E+01               0
GRID*               1467               02.2618670398E+011.1509310290E+01+
*       5.8943720807E+00               0
GRID*               1468               02.6437235722E+011.0619119222E+01+
*       2.8513289385E+00               0
GRID*               1469               02.4905928144E+017.1840099589E+00+
*       -2.686273709E-01               0
GRID*               1470               02.1087362820E+018.0742010271E+00+
*       2.7744157713E+00               0
GRID*               1471               02.2533053080E+011.3423577463E+01+
*       -9.358635375E-02               0
GRID*               1472               01.6580762399E+011.4193245957E+01+
*       -2.202429806E-01               0
GRID*               1473               01.8530529005E+011.1088365018E+01+
*       2.2695905350E+00               0
GRID*               1474               01.4109545902E+011.5293142775E+01+
*       5.2628902176E+00               0
GRID*               1475               01.1383045961E+011.4502412579E+01+
*       2.1008305662E+00               0
GRID*               1476               01.5804029064E+011.0297634822E+01+
*       -8.924691164E-01               0
GRID*               1477               01.3332812566E+011.1397531640E+01+
*       4.5906640818E+00               0
GRID*               1478               01.7430049071E+017.8639496844E+00+
*       -8.925237490E-01               0
GRID*               1479               01.4958832574E+018.9638465025E+00+
*       4.5906094491E+00               0
GRID*               1480               01.9952050688E+016.7291078577E+00+
*       -1.347259108E+00               0
GRID*               1481               02.1696757865E+014.2440112653E+00+
*       -4.740487776E+00               0
GRID*               1482               02.2746452679E+017.5033716071E+00+
*       -6.606771332E+00               0
GRID*               1483               02.5056366664E+017.9722518448E+00+
*       -4.940104585E+00               0
GRID*               1484               02.4006671850E+014.7128915029E+00+
*       -3.073821030E+00               0
GRID*               1485               02.8960549306E+015.1677936041E+00+
*       -1.995189293E+00               0
GRID*               1486               02.3977185119E+011.1248840214E+01+
*       -4.940104585E+00               0
GRID*               1487               02.7881367761E+018.4443819729E+00+
*       -1.995189293E+00               0
GRID*               1488               02.0228649453E+016.9717689177E+00+
*       -6.606771332E+00               0
GRID*               1489               01.9178954639E+013.7124085759E+00+
*       -4.740487776E+00               0
GRID*               1490               01.7480834191E+017.8290046758E+00+
*       4.1358740905E+00               0
GRID*               1491               01.6380354257E+014.6045893425E+00+
*       9.7375980653E-01               0
GRID*               1492               01.7429950716E+017.8641980706E+00+
*       -3.749641874E+00               0
GRID*               1493               01.4920340510E+018.7304860948E+00+
*       -7.142870543E+00               0
GRID*               1494               01.8492135296E+011.0854756224E+01+
*       -6.606771332E+00               0
GRID*               1495               01.6656854667E+014.8474987887E+00+
*       -7.142870543E+00               0
GRID*               1496               0-9.446683638E-015.2140734347E+01+
*       4.8197766877E+00               0
GRID*               1497               0-5.033730272E+007.0419000665E+01+
*       4.7053149503E+00               0
GRID*               1498               0-1.747619569E+007.2585856556E+01+
*       4.1259449723E+00               0
GRID*               1499               0-1.935785600E+006.6539309178E+01+
*       4.7053149503E+00               0
GRID*               1500               01.3503251036E+006.8706165069E+01+
*       4.1259449723E+00               0
GRID*               1501               0-1.444091390E+016.9027441026E+01+
*       4.8960093017E+00               0
GRID*               1502               0-9.528366226E+007.0025102313E+01+
*       4.7053149503E+00               0
GRID*               1503               0-6.906052018E+011.4361018665E+01+
*       9.8995378903E+00               0
GRID*               1504               0-6.748594300E+011.2941780070E+01+
*       1.5414081753E+01               0
GRID*               1505               0-7.048007055E+011.5202329651E+01+
*       1.4485456137E+01               0
GRID*               1506               0-7.494016057E+011.3036153311E+01+
*       1.4485456137E+01               0
GRID*               1507               0-7.194603302E+011.0775603730E+01+
*       1.5414081753E+01               0
GRID*               1508               0-7.028922788E+011.9639802848E+01+
*       1.4485456137E+01               0
GRID*               1509               0-6.729510033E+011.7379253267E+01+
*       1.5414081753E+01               0
GRID*               1510               0-6.934417418E+012.1810723633E+01+
*       9.5618435762E+00               0
GRID*               1511               0-7.120018800E+012.6625395148E+01+
*       1.5076387439E+01               0
GRID*               1512               0-7.391066154E+012.1436239762E+01+
*       1.4485456137E+01               0
GRID*               1513               0-6.757875434E+012.4828958234E+01+
*       1.5076387439E+01               0
GRID*               1514               0-7.800491285E+012.0637333754E+01+
*       9.4854914124E+00               0
GRID*               1515               0-7.986092667E+012.5452005270E+01+
*       1.5000035276E+01               0
GRID*               1516               0-7.529443931E+012.5826489140E+01+
*       1.0076422715E+01               0
GRID*               1517               0-6.924990581E+012.5386157430E+01+
*       5.0763874394E+00               0
GRID*               1518               0-7.196037936E+012.0197002043E+01+
*       4.4854561368E+00               0
GRID*               1519               0-7.791064448E+012.4212767551E+01+
*       5.0000352756E+00               0
GRID*               1520               0-7.913642973E+011.5771818953E+01+
*       9.4854712720E+00               0
GRID*               1521               0-7.501826387E+011.6931268633E+01+
*       4.4854561368E+00               0
GRID*               1522               0-8.210004587E+011.6081519339E+01+
*       5.0000151352E+00               0
GRID*               1523               0-8.096852900E+012.0947034141E+01+
*       5.0000352756E+00               0
GRID*               1524               02.2014010228E+00-1.970861447E+01+
*       8.3033227779E+00               0
GRID*               1525               05.4057194786E+00-1.679111068E+01+
*       9.9021843205E+00               0
GRID*               1526               02.5366851541E+00-1.677521362E+01+
*       1.1258363869E+01               0
GRID*               1527               01.0391379769E+00-1.930769149E+01+
*       1.4557879395E+01               0
GRID*               1528               03.9081723014E+00-1.932358855E+01+
*       1.3201699847E+01               0
GRID*               1529               0-2.166618337E+01-4.006461474E+01+
*       1.1835426821E+01               0
GRID*               1530               0-2.327019559E+01-4.110517695E+01+
*       1.6666683702E+01               0
GRID*               1531               0-2.152889585E+00-1.767714299E+01+
*       3.2194294412E+00               0
GRID*               1532               02.5348836976E+00-1.736218989E+01+
*       7.0449686190E+00               0
GRID*               1533               0-3.341506269E-01-1.734629283E+01+
*       8.4011481673E+00               0
GRID*               1534               0-2.486372260E+00-2.002356757E+01+
*       4.4777836001E+00               0
GRID*               1535               0-1.835662637E+00-2.486055789E+01+
*       1.3139412101E+01               0
GRID*               1536               0-3.322249767E+00-2.009091939E+01+
*       1.2557280274E+01               0
GRID*               1537               0-3.132319225E+00-2.441135880E+01+
*       7.0337614044E+00               0
GRID*               1538               0-4.300348561E+00-2.957919928E+01+
*       1.0513671179E+01               0
GRID*               1539               0-5.786935690E+00-2.480956078E+01+
*       9.9315393518E+00               0
GRID*               1540               0-4.951058183E+00-2.474220895E+01+
*       1.8520426783E+00               0
GRID*               1541               0-5.433412280E+00-1.862672446E+01+
*       9.5635950112E+00               0
GRID*               1542               0-7.252151238E+00-1.895757461E+01+
*       4.3818762851E+00               0
GRID*               1543               0-7.898098203E+00-2.334536584E+01+
*       6.9378540894E+00               0
GRID*               1544               01.9700807871E+00-2.416858169E+01+
*       7.9154949387E+00               0
GRID*               1545               01.5134182878E-01-2.449943185E+01+
*       2.7337762125E+00               0
GRID*               1546               04.8391151116E+00-2.418447875E+01+
*       6.5593153903E+00               0
GRID*               1547               0-3.402976167E+00-6.843526716E+01+
*       1.6429886103E+01               0
GRID*               1548               0-1.326813830E+00-7.277473631E+01+
*       1.5010944198E+01               0
GRID*               1549               0-4.972298751E+00-7.024709277E+01+
*       1.1440830300E+01               0
GRID*               1550               0-5.825446410E-01-6.635658397E+01+
*       1.2118947811E+01               0
GRID*               1551               03.0629402799E+00-6.888422752E+01+
*       1.5689061709E+01               0
GRID*               1552               01.4936176958E+00-7.069605312E+01+
*       1.0700005906E+01               0
GRID*               1553               0-1.241296873E+01-6.681353030E+01+
*       1.6429886103E+01               0
GRID*               1554               0-1.498267806E+01-7.033398665E+01+
*       1.5069804949E+01               0
GRID*               1555               0-9.618170414E+00-6.942807997E+01+
*       1.1499691052E+01               0
GRID*               1556               0-7.890609216E+00-6.772558019E+01+
*       1.6429886103E+01               0
GRID*               1557               0-1.046031854E+01-7.124603654E+01+
*       1.5069804949E+01               0
GRID*               1558               0-4.809704225E+00-6.419366518E+01+
*       1.6429886103E+01               0
GRID*               1559               0-1.164483459E+00-5.954805010E+01+
*       1.5382930570E+01               0
GRID*               1560               0-3.403240322E+00-6.126200854E+01+
*       1.1812816673E+01               0
GRID*               1561               0-8.688045299E+00-6.039764715E+01+
*       1.1270377313E+01               0
GRID*               1562               0-6.449288436E+00-5.868368870E+01+
*       1.4840491210E+01               0
GRID*               1563               0-5.042824533E+00-5.575203206E+01+
*       1.0223421780E+01               0
GRID*               1564               01.6562122216E+00-6.464262553E+01+
*       1.5689061709E+01               0
GRID*               1565               0-1.090109701E+01-5.780593295E+01+
*       1.4840491210E+01               0
GRID*               1566               0-9.261512802E+00-6.331590942E+01+
*       1.6429886103E+01               0
GRID*               1567               06.3260100181E+013.9144780377E+01+
*       4.5530837221E+00               0
GRID*               1568               05.2126984835E+013.9590775551E+01+
*       1.0147502114E+01               0
GRID*               1569               04.9710906674E+014.0503525898E+01+
*       5.1958896332E+00               0
GRID*               1570               05.4381858808E+014.0345676018E+01+
*       4.9516124805E+00               0
GRID*               1571               05.0978226513E+013.5799644743E+01+
*       5.1958896332E+00               0
GRID*               1572               04.7242708620E+014.0136244429E+01+
*       1.0282529375E+01               0
GRID*               1573               07.1325515477E+014.4457712442E+01+
*       4.9999330538E+00               0
GRID*               1574               06.0793785230E+014.8324270393E+01+
*       4.5530837221E+00               0
GRID*               1575               06.1986600014E+014.4080085356E+01+
*       4.5530837221E+00               0
GRID*               1576               05.7785523851E+014.4187759393E+01+
*       4.9516124805E+00               0
GRID*               1577               05.5421663071E+013.8048877290E+01+
*       1.1392140545E+01               0
GRID*               1578               05.7676569792E+013.8099829858E+01+
*       6.4405280641E+00               0
GRID*               1579               0-3.317183714E+007.7412246862E+01+
*       1.4125944972E+01               0
GRID*               1580               0-6.603294418E+007.5245390971E+01+
*       1.4705314950E+01               0
GRID*               1581               0-5.639703446E+007.1345590735E+01+
*       1.4705314950E+01               0
GRID*               1582               0-2.353592742E+007.3512446626E+01+
*       1.4125944972E+01               0
GRID*               1583               04.5668902406E+007.4563388455E+01+
*       8.4822934211E+00               0
GRID*               1584               06.0360298671E+007.7224362011E+01+
*       1.4356348449E+01               0
GRID*               1585               07.8065420090E-017.6696282548E+01+
*       1.4125944972E+01               0
GRID*               1586               08.3868621143E+007.2270267930E+01+
*       1.4356348449E+01               0
GRID*               1587               02.1950950957E+007.3215674072E+01+
*       4.1259449723E+00               0
GRID*               1588               05.0350552309E-017.6580955117E+01+
*       4.1259449723E+00               0
GRID*               1589               05.7588811893E+007.7109034579E+01+
*       4.3563484487E+00               0
GRID*               1590               0-8.090286621E+007.5651331075E+01+
*       9.9593160822E+00               0
GRID*               1591               0-6.569656530E+008.0322464665E+01+
*       9.1259341172E+00               0
GRID*               1592               0-4.082092119E+007.6349902899E+01+
*       4.1259449723E+00               0
GRID*               1593               0-1.071898491E+017.9028268944E+01+
*       1.5833371110E+01               0
GRID*               1594               01.5648741074E+01-2.014934871E+01+
*       1.3908832963E+00               0
GRID*               1595               01.5061403018E+01-1.377469541E+01+
*       1.2023921172E+00               0
GRID*               1596               01.4605380946E+01-2.028781905E+01+
*       5.0021932021E+00               0
GRID*               1597               01.9446214019E+01-1.462264907E+01+
*       3.6188807783E+00               0
GRID*               1598               0-3.138932457E+01-4.043566239E+01+
*       1.1799678259E+01               0
GRID*               1599               01.9132981207E+01-1.671515296E+01+
*       -4.537792148E+00               0
GRID*               1600               02.3517792208E+01-1.756310662E+01+
*       -2.121303487E+00               0
GRID*               1601               02.5001637325E+01-7.623012584E+00+
*       -3.594259287E+00               0
GRID*               1602               02.6780957916E+01-1.153738182E+01+
*       -2.121303487E+00               0
GRID*               1603               03.0111588399E+01-5.153422427E+00+
*       -1.559639290E+00               0
GRID*               1604               02.8205015631E+01-8.948172996E+00+
*       2.9857237309E+00               0
GRID*               1605               01.9143085993E+01-1.507552174E+01+
*       1.0313666044E+01               0
GRID*               1606               01.5818672484E+01-1.149646155E+01+
*       9.1568648010E+00               0
GRID*               1607               0-5.147022430E+01-5.444437807E+01+
*       1.1114892816E+01               0
GRID*               1608               0-5.544329323E+01-4.664060865E+01+
*       1.0403344212E+01               0
GRID*               1609               0-4.891092165E+01-5.142563306E+01+
*       9.9652572734E+00               0
GRID*               1610               0-4.949582237E+01-5.686572299E+01+
*       5.3384029388E+00               0
GRID*               1611               0-5.602819395E+01-5.208069858E+01+
*       5.7764898774E+00               0
GRID*               1612               0-5.346889130E+01-4.906195357E+01+
*       4.6268543346E+00               0
GRID*               1613               0-5.238089671E+01-5.045140133E+01+
*       1.5776489877E+01               0
GRID*               1614               0-4.982159406E+01-4.743265632E+01+
*       1.4626854335E+01               0
GRID*               1615               0-5.475260221E+01-4.518183869E+01+
*       1.4626854335E+01               0
GRID*               1616               0-5.731190485E+01-4.820058370E+01+
*       1.5776489877E+01               0
GRID*               1617               0-5.751505719E+01-4.717768786E+01+
*       5.7764898774E+00               0
GRID*               1618               0-5.495575454E+01-4.415894285E+01+
*       4.6268543346E+00               0
GRID*               1619               04.5000686140E+01-6.202585044E+01+
*       1.5128682811E+01               0
GRID*               1620               04.8520187383E+01-6.749351198E+01+
*       1.4999944671E+01               0
GRID*               1621               04.9912153448E+01-6.382377425E+01+
*       1.0128627482E+01               0
GRID*               1622               04.8690403969E+01-5.910850632E+01+
*       1.5128682811E+01               0
GRID*               1623               05.2209905212E+01-6.457616787E+01+
*       1.4999944671E+01               0
GRID*               1624               02.3434865561E+01-5.399310628E+01+
*       1.7801697374E+01               0
GRID*               1625               02.6333328653E+01-5.476887602E+01+
*       1.7801697374E+01               0
GRID*               1626               02.3434865554E+01-5.399310627E+01+
*       1.4468364040E+01               0
GRID*               1627               0-5.040166228E+01-3.988731374E+01+
*       9.6801510895E+00               0
GRID*               1628               0-4.779319115E+01-4.090883304E+01+
*       5.0532967549E+00               0
GRID*               1629               0-5.027551945E+01-4.464338294E+01+
*       4.6268543346E+00               0
GRID*               1630               0-5.205957750E+01-4.065987104E+01+
*       4.6268543346E+00               0
GRID*               1631               0-4.957724919E+01-3.692532113E+01+
*       5.0532967549E+00               0
GRID*               1632               0-7.542008077E+00-7.376754912E+01+
*       1.0080749147E+01               0
GRID*               1633               0-9.007754592E+00-7.568913024E+01+
*       1.5069804949E+01               0
GRID*               1634               0-4.361882929E+00-7.650814303E+01+
*       1.5010944198E+01               0
GRID*               1635               0-5.814446879E+00-7.206504933E+01+
*       1.5010944198E+01               0
GRID*               1636               0-9.206617345E+00-7.548612051E+01+
*       5.0698049488E+00               0
GRID*               1637               0-4.560745682E+00-7.630513331E+01+
*       5.0109441977E+00               0
GRID*               1638               0-7.674709153E+00-8.059791468E+01+
*       1.0010955109E+01               0
GRID*               1639               0-1.232058082E+01-7.977890189E+01+
*       1.0069815861E+01               0
GRID*               1640               0-9.339318421E+00-8.231648608E+01+
*       5.0000109118E+00               0
GRID*               1641               0-9.140455667E+00-8.251949580E+01+
*       1.5000010912E+01               0
GRID*               1642               0-6.123397962E+01-5.441202615E+01+
*       1.0776465106E+01               0
GRID*               1643               0-5.925957769E+01-5.683337107E+01+
*       4.9999752289E+00               0
GRID*               1644               0-5.765187208E+01-5.789333929E+01+
*       1.0776527239E+01               0
GRID*               1645               0-5.567747015E+01-6.031468421E+01+
*       5.0000373613E+00               0
GRID*               1646               0-4.584852513E+01-5.523642574E+01+
*       1.5338402939E+01               0
GRID*               1647               0-5.051699657E+01-5.768202282E+01+
*       1.5338402939E+01               0
GRID*               1648               0-5.704936814E+01-5.289699840E+01+
*       1.5776489877E+01               0
GRID*               1649               0-5.998470558E+01-4.452206648E+01+
*       1.0634138810E+01               0
GRID*               1650               0-6.405793336E+01-4.149019019E+01+
*       4.8576489328E+00               0
GRID*               1651               0-6.207582366E+01-4.662747737E+01+
*       5.7764898774E+00               0
GRID*               1652               0-6.439595942E+01-5.054502343E+01+
*       1.0776428857E+01               0
GRID*               1653               0-6.637806913E+01-4.540773625E+01+
*       9.8575879128E+00               0
GRID*               1654               0-6.846918721E+01-4.751314714E+01+
*       4.9999389800E+00               0
GRID*               1655               0-6.390732796E+01-4.182687119E+01+
*       1.4857648933E+01               0
GRID*               1656               0-6.192521825E+01-4.696415836E+01+
*       1.5776489877E+01               0
GRID*               1657               0-5.929401456E+01-4.306329652E+01+
*       1.4857648933E+01               0
GRID*               1658               0-6.028075189E+01-5.764967090E+01+
*       1.4999975229E+01               0
GRID*               1659               0-6.038405314E+01-5.060334629E+01+
*       1.5776489877E+01               0
GRID*               1660               0-6.361543689E+01-5.535601879E+01+
*       1.4999975229E+01               0
GRID*               1661               0-5.742540293E+01-4.150332147E+01+
*       9.4845032674E+00               0
GRID*               1662               0-1.835273282E+01-1.847738327E+01+
*       2.5383423694E+01               0
GRID*               1663               0-1.502007652E+01-1.863147122E+01+
*       2.7050090679E+01               0
GRID*               1664               0-1.822883823E+01-1.525809957E+01+
*       2.7164880467E+01               0
GRID*               1665               0-5.949716689E+01-4.204040068E+01+
*       4.8576489328E+00               0
GRID*               1666               02.5306673990E+01-1.587411663E+01+
*       2.1240148048E+01               0
GRID*               1667               02.6665666186E+01-1.286161301E+01+
*       2.1240148048E+01               0
GRID*               1668               02.2047154039E+01-1.481966785E+01+
*       2.0001035877E+01               0
GRID*               1669               02.3085698933E+01-1.445590674E+01+
*       2.5427553860E+01               0
GRID*               1670               02.4444691129E+01-1.144340312E+01+
*       2.5427553860E+01               0
GRID*               1671               02.5720198672E+01-5.390843192E+00+
*       1.7689664832E+01               0
GRID*               1672               02.3044754069E+01-1.059219024E+01+
*       1.7993152673E+01               0
GRID*               1673               02.6943573698E+01-1.103653070E+01+
*       1.5510142224E+01               0
GRID*               1674               02.9341110788E+01-7.660265961E+00+
*       2.0936660207E+01               0
GRID*               1675               02.5442291159E+01-7.215925504E+00+
*       2.3419670656E+01               0
GRID*               1676               01.5216245804E+01-1.200412970E+01+
*       2.1379918630E+01               0
GRID*               1677               01.7688678643E+01-1.560902877E+01+
*       2.2144622355E+01               0
GRID*               1678               01.5216344595E+01-1.200404798E+01+
*       2.4237073357E+01               0
GRID*               1679               02.1994956164E+01-1.130351436E+01+
*       2.7094220845E+01               0
GRID*               1680               01.9980731302E+01-8.356870858E+00+
*       2.7094220845E+01               0
GRID*               1681               01.8431626842E+01-1.231916032E+01+
*       2.7094220845E+01               0
GRID*               1682               01.6585240191E+01-1.344817847E+01+
*       1.6800415300E+01               0
GRID*               1683               01.8722740530E+01-1.124060766E+01+
*       1.8844234634E+01               0
GRID*               1684               01.8945860089E+01-1.595093598E+01+
*       2.7094220845E+01               0
GRID*               1685               01.5392089691E+01-1.531320997E+01+
*       2.7094220845E+01               0
GRID*               1686               01.6808359750E+01-1.815850678E+01+
*       2.5050401510E+01               0
GRID*               1687               01.3254589352E+01-1.752078078E+01+
*       2.5050401510E+01               0
GRID*               1688               02.1110832601E+01-1.710606217E+01+
*       2.5427553860E+01               0
GRID*               1689               0-3.786656209E+01-4.392689398E+01+
*       8.4219607781E+00               0
GRID*               1690               05.0236775400E+01-5.506728858E+01+
*       9.5244104368E+00               0
GRID*               1691               04.8683492226E+01-5.893209404E+01+
*       5.1286828110E+00               0
GRID*               1692               05.2527615421E+01-5.564326992E+01+
*       4.3957276258E+00               0
GRID*               1693               05.7531364773E+01-5.726382936E+01+
*       9.3957185645E+00               0
GRID*               1694               05.3687241578E+01-6.055265349E+01+
*       1.0128673750E+01               0
GRID*               1695               05.5978081599E+01-6.112863483E+01+
*       4.9999909387E+00               0
GRID*               1696               05.2534527165E+01-5.581968220E+01+
*       1.4395727626E+01               0
GRID*               1697               05.5984993342E+01-6.130504711E+01+
*       1.4999990939E+01               0
GRID*               1698               05.9397924427E+01-5.770532294E+01+
*       4.9999909387E+00               0
GRID*               1699               05.5947458250E+01-5.221995803E+01+
*       4.3957276258E+00               0
GRID*               1700               06.0908954145E+01-5.358373548E+01+
*       9.3957751550E+00               0
GRID*               1701               06.2775513799E+01-5.402522905E+01+
*       5.0000475291E+00               0
GRID*               1702               04.7352263770E+01-5.478795063E+01+
*       1.5128682811E+01               0
GRID*               1703               05.1196386965E+01-5.149912651E+01+
*       1.4395727626E+01               0
GRID*               1704               04.8777613040E+01-5.102821029E+01+
*       9.3398785044E+00               0
GRID*               1705               04.4933489845E+01-5.431703441E+01+
*       1.0072833690E+01               0
GRID*               1706               04.5893101410E+01-5.074887234E+01+
*       1.4944150879E+01               0
GRID*               1707               05.1920048171E+01-4.776412840E+01+
*       9.5421699402E+00               0
GRID*               1708               04.9035536540E+01-4.748479046E+01+
*       1.5146442314E+01               0
GRID*               1709               05.3958366423E+01-4.718689217E+01+
*       1.4395727626E+01               0
GRID*               1710               05.1797515998E+01-4.317255612E+01+
*       1.5146442314E+01               0
GRID*               1711               05.7631792846E+01-4.697923629E+01+
*       9.0150967738E+00               0
GRID*               1712               05.8003384224E+01-4.264343015E+01+
*       4.6193691480E+00               0
GRID*               1713               05.4452489973E+01-4.744265830E+01+
*       4.3957276258E+00               0
GRID*               1714               05.5470942422E+01-4.296490024E+01+
*       9.7658114624E+00               0
GRID*               1715               05.2291639548E+01-4.342832225E+01+
*       5.1464423144E+00               0
GRID*               1716               05.3119812529E+01-2.940305598E+01+
*       4.9133975783E+00               0
GRID*               1717               05.8862825345E+01-2.946914680E+01+
*       4.9517149450E+00               0
GRID*               1718               05.5980146884E+01-3.279903836E+01+
*       4.9517149450E+00               0
GRID*               1719               05.0237134068E+01-3.273294754E+01+
*       4.9133975783E+00               0
GRID*               1720               04.4433605676E+01-3.575007476E+01+
*       1.0815515810E+01               0
GRID*               1721               04.3146632202E+01-4.031858036E+01+
*       5.9021182313E+00               0
GRID*               1722               04.7165351397E+01-3.612173016E+01+
*       4.9133975783E+00               0
GRID*               1723               04.9105761309E+01-3.765150846E+01+
*       1.0059839893E+01               0
GRID*               1724               04.5087042114E+01-4.184835865E+01+
*       1.1048560546E+01               0
GRID*               1725               04.7818787834E+01-4.222001405E+01+
*       5.1464423144E+00               0
GRID*               1726               04.8285004649E+01-2.564476883E+01+
*       1.0936604843E+01               0
GRID*               1727               04.6533658408E+01-2.303410954E+01+
*       1.6023207265E+01               0
GRID*               1728               04.6700978630E+01-2.894256528E+01+
*       1.4913397578E+01               0
GRID*               1729               05.0893686568E+01-2.656711066E+01+
*       1.4913397578E+01               0
GRID*               1730               05.0726366346E+01-2.065865492E+01+
*       1.6023207265E+01               0
GRID*               1731               05.8102212306E+01-2.505432344E+01+
*       4.1902889807E+00               0
GRID*               1732               05.4848774125E+01-3.771759928E+01+
*       1.0098157259E+01               0
GRID*               1733               05.6602315181E+01-3.804633932E+01+
*       4.6193691480E+00               0
GRID*               1734               05.0890570506E+01-3.883123143E+01+
*       5.1464423144E+00               0
GRID*               1735               05.1144079560E+01-3.707427223E+01+
*       1.4913397578E+01               0
GRID*               1736               05.6887092377E+01-3.714036305E+01+
*       1.4951714945E+01               0
GRID*               1737               04.6898920298E+01-3.390965621E+01+
*       1.4913397578E+01               0
GRID*               1738               04.7552356736E+01-4.000794010E+01+
*       1.5146442314E+01               0
GRID*               1739               03.9528809907E+014.5653114082E+01+
*       8.4199730755E+00               0
GRID*               1740               03.6108180800E+015.0288586951E+01+
*       9.8846196458E+00               0
GRID*               1741               04.3034343039E+014.6697436195E+01+
*       5.0866397421E+00               0
GRID*               1742               03.6801088246E+014.7122805694E+01+
*       3.3333333333E+00               0
GRID*               1743               03.9613713931E+015.1332909064E+01+
*       6.5512863125E+00               0
GRID*               1744               02.0567397860E+01-5.629459434E+01+
*       1.1896447714E+01               0
GRID*               1745               02.0058695271E+01-5.145529726E+01+
*       1.6666666666E+01               0
GRID*               1746               01.9169636978E+01-5.211637554E+01+
*       1.1868763102E+01               0
GRID*               1747               01.6478880579E+01-5.653613753E+01+
*       1.0431877483E+01               0
GRID*               1748               01.5970177990E+01-5.169684046E+01+
*       1.5202096436E+01               0
GRID*               1749               04.2875659840E+014.2341561590E+01+
*       8.7448469202E+00               0
GRID*               1750               04.0147938179E+014.3811253202E+01+
*       3.6582071781E+00               0
GRID*               1751               04.4765152635E+014.1893851783E+01+
*       5.0866397421E+00               0
GRID*               1752               04.1878747775E+013.9007668791E+01+
*       3.6582071781E+00               0
GRID*               1753               04.4356303760E+013.7250061437E+01+
*       8.8540968112E+00               0
GRID*               1754               04.6245796555E+013.6802351630E+01+
*       5.1958896332E+00               0
GRID*               1755               0-4.431439792E+017.0169927995E+01+
*       1.0518306806E+01               0
GRID*               1756               0-6.260456124E+015.4161304900E+01+
*       5.0000245542E+00               0
GRID*               1757               0-4.436592625E+015.6465824501E+01+
*       4.1588390261E+00               0
GRID*               1758               0-4.842997615E+015.5521884678E+01+
*       4.7321223294E+00               0
GRID*               1759               0-4.507105658E+015.2012167128E+01+
*       4.4769985488E+00               0
GRID*               1760               0-4.298869393E+015.2798171790E+01+
*       8.6358375749E+00               0
GRID*               1761               0-5.385546943E+016.0746448624E+01+
*       9.7320847927E+00               0
GRID*               1762               0-5.586399887E+016.1448752130E+01+
*       4.9999624633E+00               0
GRID*               1763               0-5.242019285E+015.6066253023E+01+
*       4.7321223294E+00               0
GRID*               1764               0-5.944620510E+015.7967540351E+01+
*       5.0000245542E+00               0
GRID*               1765               0-2.498047309E+018.9035409817E+00+
*       2.5294616992E+01               0
GRID*               1766               0-2.239971978E+011.1387194085E+01+
*       2.3040172768E+01               0
GRID*               1767               0-1.951324626E+017.7179524141E+00+
*       2.1668123730E+01               0
GRID*               1768               0-2.496376375E+019.1415968478E+00+
*       2.0478996014E+01               0
GRID*               1769               0-2.785023727E+011.2810838518E+01+
*       2.1851045053E+01               0
GRID*               1770               0-2.238301044E+011.1625249951E+01+
*       1.8224551790E+01               0
GRID*               1771               0-2.275022702E+01-4.062286375E+00+
*       2.5200338898E+01               0
GRID*               1772               0-2.108204081E+017.5126144974E-01+
*       2.6961283977E+01               0
GRID*               1773               0-2.563425540E+01-1.691649068E+00+
*       2.5200338898E+01               0
GRID*               1774               0-2.396606918E+013.1218987565E+00+
*       2.6961283977E+01               0
GRID*               1775               0-2.097477722E+014.9187577513E+00+
*       2.6961283977E+01               0
GRID*               1776               0-1.854692063E+012.6169767751E+00+
*       2.4104157099E+01               0
GRID*               1777               0-1.742769829E+012.3014352152E+00+
*       2.7142873122E+01               0
GRID*               1778               0-1.753496187E+01-1.866061086E+00+
*       2.7142873122E+01               0
GRID*               1779               0-2.633226663E+012.4722012128E+00+
*       2.5294616992E+01               0
GRID*               1780               0-2.800045284E+01-2.341346612E+00+
*       2.3533671913E+01               0
GRID*               1781               0-3.041317841E+011.3689747481E+00+
*       2.1057213930E+01               0
GRID*               1782               0-2.256045840E+018.4991120502E+00+
*       2.6961283977E+01               0
GRID*               1783               0-1.997970509E+011.0982765153E+01+
*       2.4706839753E+01               0
GRID*               1784               0-1.932863381E+018.0891896577E+00+
*       2.6961283977E+01               0
GRID*               1785               0-1.674788050E+011.0572842761E+01+
*       2.4706839753E+01               0
GRID*               1786               0-1.797606654E+015.4873202738E+00+
*       2.4104135959E+01               0
GRID*               1787               0-1.539531323E+017.9709733766E+00+
*       2.1849691735E+01               0
GRID*               1788               0-1.521070079E+018.3422106202E+00+
*       2.7142851982E+01               0
GRID*               1789               05.7509260673E+01-4.238766401E+01+
*       1.4619369148E+01               0
GRID*               1790               07.4998109612E+01-3.602334747E+01+
*       1.6109947446E+01               0
GRID*               1791               05.9498352500E+01-4.742072987E+01+
*       4.6193691480E+00               0
GRID*               1792               03.7719080280E+01-7.167336410E+01+
*       1.0082809683E+01               0
GRID*               1793               03.5792224801E+01-7.514548496E+01+
*       4.9999406971E+00               0
GRID*               1794               03.7162581224E+01-6.722603723E+01+
*       5.0828689860E+00               0
GRID*               1795               04.2137103997E+01-6.934221355E+01+
*       1.0082801346E+01               0
GRID*               1796               04.0210248518E+01-7.281433441E+01+
*       4.9999323600E+00               0
GRID*               1797               04.0565162501E+01-6.050793687E+01+
*       1.5082868986E+01               0
GRID*               1798               04.4216770252E+01-5.780903504E+01+
*       1.5128682811E+01               0
GRID*               1799               04.2741044454E+01-6.105501454E+01+
*       1.0211551797E+01               0
GRID*               1800               03.8471017529E+01-5.965455387E+01+
*       1.0037962879E+01               0
GRID*               1801               03.9946743327E+01-5.640857437E+01+
*       1.4955093893E+01               0
GRID*               1802               04.2122625280E+01-5.695565203E+01+
*       1.0083776704E+01               0
GRID*               1803               04.1301944209E+01-6.460300460E+01+
*       5.0828689860E+00               0
GRID*               1804               04.4953551960E+01-6.190410277E+01+
*       5.1286828110E+00               0
GRID*               1805               04.6260545697E+01-6.652267608E+01+
*       1.0082813657E+01               0
GRID*               1806               04.8473053202E+01-6.737176431E+01+
*       4.9999446713E+00               0
GRID*               1807               03.2786921265E+01-6.971309064E+01+
*       1.4979872293E+01               0
GRID*               1808               03.7207449695E+01-6.730450839E+01+
*       1.5082868986E+01               0
GRID*               1809               04.1349078389E+01-6.472475227E+01+
*       1.5082868986E+01               0
GRID*               1810               0-5.827352320E+01-3.444307734E+01+
*       4.8576489328E+00               0
GRID*               1811               0-5.667103646E+01-4.005976456E+01+
*       4.6268543346E+00               0
GRID*               1812               0-5.373211085E+01-3.656161951E+01+
*       4.6268543346E+00               0
GRID*               1813               0-6.028091836E+01-5.012569966E+01+
*       5.7764898774E+00               0
GRID*               1814               0-6.667428191E+01-5.101136943E+01+
*       4.9999389800E+00               0
GRID*               1815               0-7.512928461E+01-3.473733217E+01+
*       1.4999944778E+01               0
GRID*               1816               0-6.442572567E+01-1.900163015E+01+
*       5.0972584131E+00               0
GRID*               1817               0-6.653011898E+01-2.506540281E+01+
*       1.4916388185E+01               0
GRID*               1818               0-6.381792522E+01-2.949156548E+01+
*       1.4057138179E+01               0
GRID*               1819               0-6.224414556E+01-2.316655216E+01+
*       1.5097258413E+01               0
GRID*               1820               0-5.695993663E+01-2.341591065E+01+
*       4.9397082352E+00               0
GRID*               1821               0-7.101919990E+01-4.364751715E+01+
*       1.4999932950E+01               0
GRID*               1822               0-6.831858180E+01-4.784982814E+01+
*       1.4999938980E+01               0
GRID*               1823               0-3.232342881E+01-3.105326981E+01+
*       1.5732690284E+01               0
GRID*               1824               0-3.008221029E+01-3.499150946E+01+
*       1.5133011592E+01               0
GRID*               1825               0-3.704586684E+01-3.057826586E+01+
*       1.2043070853E+01               0
GRID*               1826               0-3.480464832E+01-3.451650551E+01+
*       1.1443392161E+01               0
GRID*               1827               0-3.515148707E+01-3.397198649E+01+
*       1.6310380569E+01               0
GRID*               1828               0-3.624993250E+01-2.948103880E+01+
*       1.5732690284E+01               0
GRID*               1829               0-3.937029825E+01-2.754535155E+01+
*       1.5732690284E+01               0
GRID*               1830               0-3.721875935E+01-2.513346575E+01+
*       1.5732690284E+01               0
GRID*               1831               0-2.413975882E+01-2.447615440E+01+
*       5.5218112688E+00               0
GRID*               1832               0-2.208389182E+01-2.624030145E+01+
*       1.2390458481E+01               0
GRID*               1833               0-2.049916812E+01-2.237013763E+01+
*       9.8854214044E+00               0
GRID*               1834               0-2.345244908E+01-1.893900937E+01+
*       9.5326688046E+00               0
GRID*               1835               0-2.503717278E+01-2.280917319E+01+
*       1.2037705881E+01               0
GRID*               1836               0-3.425737724E+01-2.326144637E+01+
*       5.7326902843E+00               0
GRID*               1837               0-3.802896953E+01-1.945508703E+01+
*       5.0233145530E+00               0
GRID*               1838               0-3.798940087E+01-2.385318984E+01+
*       1.0756004837E+01               0
GRID*               1839               0-3.258122692E+01-1.881271527E+01+
*       5.0092110353E+00               0
GRID*               1840               0-3.631325055E+01-1.940445875E+01+
*       1.0032525588E+01               0
GRID*               1841               0-3.326287328E+01-3.413863348E+01+
*       5.1330115921E+00               0
GRID*               1842               0-3.125742878E+01-3.054377835E+01+
*       4.0134241726E+00               0
GRID*               1843               0-3.550409180E+01-3.020039383E+01+
*       5.7326902843E+00               0
GRID*               1844               0-3.524076430E+01-4.822449666E+01+
*       1.6666666667E+01               0
GRID*               1845               0-3.484946037E+01-5.119841148E+01+
*       1.6666683702E+01               0
GRID*               1846               0-3.974450207E+01-2.907344391E+01+
*       6.3103805687E+00               0
GRID*               1847               0-3.691644381E+01-2.615472723E+01+
*       5.7326902843E+00               0
GRID*               1848               0-3.833215007E+01-3.311911051E+01+
*       6.3103805687E+00               0
GRID*               1849               0-2.671027153E+01-1.968403878E+01+
*       6.5175981314E+00               0
GRID*               1850               0-2.578899069E+01-2.343474827E+01+
*       1.5083870962E+00               0
GRID*               1851               0-4.068803610E+01-2.234836790E+01+
*       5.0233145530E+00               0
GRID*               1852               0-3.518044312E+01-2.239828741E+01+
*       1.5732690284E+01               0
GRID*               1853               0-3.123926352E+01-2.163478353E+01+
*       1.5009211035E+01               0
GRID*               1854               0-2.502816012E+01-2.432088238E+01+
*       1.8377034308E+01               0
GRID*               1855               0-2.202455722E+01-2.743217943E+01+
*       1.8377034308E+01               0
GRID*               1856               0-2.612770561E+01-1.421901096E+01+
*       1.1614503999E+01               0
GRID*               1857               0-2.275153417E+01-1.197816021E+01+
*       6.4521499315E+00               0
GRID*               1858               0-2.097369160E+01-1.503117740E+01+
*       1.0886209350E+01               0
GRID*               1859               0-2.523029165E+01-1.588599217E+01+
*       5.0986093862E+00               0
GRID*               1860               0-2.007627764E+01-1.669815862E+01+
*       4.3703147376E+00               0
GRID*               1861               0-5.138355021E+017.6756405051E+00+
*       1.6666683702E+01               0
GRID*               1862               0-4.822361312E+015.7719032903E+00+
*       1.6666683702E+01               0
GRID*               1863               0-3.430278730E+015.6719265534E+01+
*       1.4676489347E+01               0
GRID*               1864               0-3.602787881E+015.5334208501E+01+
*       1.4676489347E+01               0
GRID*               1865               0-3.384098000E+015.4340202095E+01+
*       1.1343156013E+01               0
GRID*               1866               0-3.350508518E+015.2306560977E+01+
*       1.6666666667E+01               0
GRID*               1867               0-3.523017669E+015.0921503944E+01+
*       1.6666666667E+01               0
GRID*               1868               0-4.228903738E+01-1.570500652E+01+
*       1.1211085621E+01               0
GRID*               1869               0-3.684129477E+01-1.506263476E+01+
*       1.1196982103E+01               0
GRID*               1870               0-3.855701375E+01-1.511326304E+01+
*       6.1877710678E+00               0
GRID*               1871               04.5932872776E+01-5.013214278E+01+
*       4.9441508786E+00               0
GRID*               1872               04.7392035136E+01-5.417122107E+01+
*       5.1286828110E+00               0
GRID*               1873               04.4092195091E+01-5.743428389E+01+
*       5.1286828110E+00               0
GRID*               1874               04.2633032731E+01-5.339520561E+01+
*       4.9441508786E+00               0
GRID*               1875               04.2757607892E+01-5.376995675E+01+
*       1.4944150879E+01               0
GRID*               1876               04.0440587340E+01-6.013318573E+01+
*       5.0828689860E+00               0
GRID*               1877               03.9822168165E+01-5.603382322E+01+
*       4.9550938928E+00               0
GRID*               1878               0-5.946814986E+01-2.674792208E+01+
*       1.4939708235E+01               0
GRID*               1879               03.0626761249E+00-6.171096889E+01+
*       1.1071992279E+01               0
GRID*               1880               0-5.278253228E+00-6.353332888E+01+
*       6.4298861027E+00               0
GRID*               1881               0-1.633032462E+00-5.888771380E+01+
*       5.3829305702E+00               0
GRID*               1882               01.1876632183E+00-6.398228924E+01+
*       5.6890617087E+00               0
GRID*               1883               05.7169187499E+00-6.493428694E+01+
*       5.6890617087E+00               0
GRID*               1884               02.8962230691E+00-5.983971150E+01+
*       5.3829305702E+00               0
GRID*               1885               04.5426940156E+00-5.817133890E+01+
*       1.0892780669E+01               0
GRID*               1886               07.3633896964E+00-6.326591434E+01+
*       1.1198911807E+01               0
GRID*               1887               07.1969366405E+00-6.139465695E+01+
*       5.5098500988E+00               0
GRID*               1888               03.1789329614E+00-6.028948632E+01+
*       1.5382930570E+01               0
GRID*               1889               05.9996286422E+00-6.538406176E+01+
*       1.5689061709E+01               0
GRID*               1890               07.4796465328E+00-6.184443177E+01+
*       1.5509850099E+01               0
GRID*               1891               0-2.501265072E+00-5.532375436E+01+
*       1.5382930570E+01               0
GRID*               1892               0-7.786070049E+00-5.445939296E+01+
*       1.4840491210E+01               0
GRID*               1893               04.2850875102E+01-2.602052725E+01+
*       1.5350118911E+01               0
GRID*               1894               05.3102739417E+01-1.507583375E+01+
*       9.2946445187E+00               0
GRID*               1895               05.2391317721E+01-1.323992409E+01+
*       3.2714372542E+00               0
GRID*               1896               04.3050892193E-01-4.874990756E+01+
*       1.0294152816E+01               0
GRID*               1897               04.1561677626E+00-5.289680568E+01+
*       5.1609320900E+00               0
GRID*               1898               0-1.313085816E+00-5.003275240E+01+
*       5.1332207263E+00               0
GRID*               1899               0-7.934317155E-01-4.586818436E+01+
*       9.0446485401E+00               0
GRID*               1900               04.6758218634E+00-4.873223764E+01+
*       9.0723599037E+00               0
GRID*               1901               02.9322271252E+00-5.001508248E+01+
*       3.9114278137E+00               0
GRID*               1902               07.3715850439E+00-5.567012259E+01+
*       1.0670782189E+01               0
GRID*               1903               01.0296634434E+01-5.846391175E+01+
*       1.5509850099E+01               0
GRID*               1904               08.8248118908E+00-5.440774999E+01+
*       1.5160932090E+01               0
GRID*               1905               04.6123721328E+00-5.366091748E+01+
*       1.5160932090E+01               0
GRID*               1906               06.0841946758E+00-5.771707923E+01+
*       1.5509850099E+01               0
GRID*               1907               01.3272767342E+00-5.539802199E+01+
*       5.3829305702E+00               0
GRID*               1908               05.6279903057E+00-5.695296743E+01+
*       5.5098500988E+00               0
GRID*               1909               02.0751785908E+00-4.663295721E+01+
*       1.3911427814E+01               0
GRID*               1910               03.2991192282E+00-4.951468040E+01+
*       1.5160932090E+01               0
GRID*               1911               06.3007327008E+00-4.751498132E+01+
*       1.3911427814E+01               0
GRID*               1912               07.5246733382E+00-5.039670451E+01+
*       1.5160932090E+01               0
GRID*               1913               0-2.398382106E+00-5.125112387E+01+
*       1.0516151297E+01               0
GRID*               1914               0-5.141627623E+00-4.995848477E+01+
*       1.5133220726E+01               0
GRID*               1915               04.7022819987E-01-5.201589671E+01+
*       1.5382930570E+01               0
GRID*               1916               0-2.170134351E+00-4.665062713E+01+
*       1.5133220726E+01               0
GRID*               1917               0-8.399323902E-014.5617153468E+01+
*       4.9112644994E+00               0
GRID*               1918               0-1.106242641E+014.1125619459E+01+
*       4.7571242869E+00               0
GRID*               1919               0-7.573590930E+004.5249088982E+01+
*       4.7571242869E+00               0
GRID*               1920               0-4.506743773E+004.8736210897E+01+
*       4.8197766877E+00               0
GRID*               1921               02.7221430186E+004.9021676918E+01+
*       4.9112644994E+00               0
GRID*               1922               0-2.768721246E+006.0688384964E+01+
*       5.0805324265E+00               0
GRID*               1923               0-4.517844745E+01-4.409169695E+01+
*       5.0886274448E+00               0
GRID*               1924               0-4.530459027E+01-3.933562775E+01+
*       1.0141924200E+01               0
GRID*               1925               0-4.255146115E+01-4.065146904E+01+
*       5.0886274448E+00               0
GRID*               1926               0-4.516620485E+01-3.746860513E+01+
*       5.0532967549E+00               0
GRID*               1927               06.1420514187E-015.1488926992E+01+
*       9.9917969260E+00               0
GRID*               1928               06.1570658897E+004.7580733216E+01+
*       9.7423746673E+00               0
GRID*               1929               0-1.082334239E+014.7472227618E+01+
*       9.5769009746E+00               0
GRID*               1930               0-1.293860273E+015.0300920029E+01+
*       1.4819776688E+01               0
GRID*               1931               0-1.600544988E+014.6813798115E+01+
*       1.4757124287E+01               0
GRID*               1932               0-6.181771990E+013.1025454853E+01+
*       1.0446501720E+01               0
GRID*               1933               0-6.335917707E+012.7335699494E+01+
*       1.5076387439E+01               0
GRID*               1934               0-6.308047871E+013.3295327401E+01+
*       1.5370114281E+01               0
GRID*               1935               0-6.789645945E+012.9269751567E+01+
*       1.5076387439E+01               0
GRID*               1936               0-6.410734808E+013.5860736628E+01+
*       1.1989325525E+01               0
GRID*               1937               0-5.730733870E+013.7109566955E+01+
*       5.3701142806E+00               0
GRID*               1938               0-6.441294762E+013.7919272895E+01+
*       6.6192112446E+00               0
GRID*               1939               0-7.250339054E+013.4908838880E+01+
*       6.6192112446E+00               0
GRID*               1940               0-7.021376236E+013.0073557105E+01+
*       5.0763874394E+00               0
GRID*               1941               0-6.892332882E+013.1835160793E+01+
*       1.1695598684E+01               0
GRID*               1942               0-7.590528671E+013.5366582783E+01+
*       1.1619266526E+01               0
GRID*               1943               0-7.719572025E+013.3604979095E+01+
*       5.0000552809E+00               0
GRID*               1944               0-7.361565853E+013.0531301009E+01+
*       1.0076442720E+01               0
GRID*               1945               0-6.794895104E+013.4073443125E+01+
*       6.6192112446E+00               0
GRID*               1946               0-6.565932286E+012.9238161351E+01+
*       5.0763874394E+00               0
GRID*               1947               0-7.174529277E+014.2118707923E+01+
*       5.0000670605E+00               0
GRID*               1948               0-7.499158205E+013.8087732591E+01+
*       5.0000670605E+00               0
GRID*               1949               0-7.370114851E+013.9849336279E+01+
*       1.1619278305E+01               0
GRID*               1950               0-1.732755644E+013.8866541993E+01+
*       4.8571021508E+00               0
GRID*               1951               0-2.118242016E+013.6513992156E+01+
*       4.8571021508E+00               0
GRID*               1952               0-2.006422699E+014.0263541014E+01+
*       8.1904354841E+00               0
GRID*               1953               0-1.922005171E+014.3938297610E+01+
*       3.3333333333E+00               0
GRID*               1954               0-2.307491543E+014.1585747773E+01+
*       3.3333333333E+00               0
GRID*               1955               02.5213312452E+015.7474489927E+01+
*       1.3025155862E+01               0
GRID*               1956               02.2128536060E+015.4263788843E+01+
*       1.1263037405E+01               0
GRID*               1957               02.2128536055E+015.4263788841E+01+
*       7.9297040723E+00               0
GRID*               1958               02.5213312446E+015.7474489925E+01+
*       9.6918225289E+00               0
GRID*               1959               0-4.613690193E+01-6.829641452E+00+
*       9.5211044011E+00               0
GRID*               1960               0-4.750585388E+01-4.663886843E+00+
*       3.3333333333E+00               0
GRID*               1961               0-4.418603356E+01-9.197427917E+00+
*       6.1877710678E+00               0
GRID*               1962               0-4.851647075E+01-8.655823489E+00+
*       9.5210873675E+00               0
GRID*               1963               0-4.988542270E+01-6.490068879E+00+
*       3.3333162998E+00               0
GRID*               1964               02.4066488847E+015.8637523694E+01+
*       1.4293857888E+01               0
GRID*               1965               02.0981712456E+015.5426822610E+01+
*       1.2531739431E+01               0
GRID*               1966               02.4798095759E+015.4589405055E+01+
*       1.4602035359E+01               0
GRID*               1967               01.8582957335E+014.7126180671E+01+
*       6.8666830181E+00               0
GRID*               1968               01.8582957335E+014.7126180671E+01+
*       1.0200016351E+01               0
GRID*               1969               02.1400661991E+015.8517625577E+01+
*       1.6358489195E+01               0
GRID*               1970               02.0985445298E+015.5632540705E+01+
*       1.7935368692E+01               0
GRID*               1971               0-1.790987491E+01-7.350324687E+01+
*       9.4819735853E+00               0
GRID*               1972               0-2.293842194E+01-7.934153072E+01+
*       9.4121985796E+00               0
GRID*               1973               0-1.721642677E+01-7.878682017E+01+
*       1.0069834892E+01               0
GRID*               1974               0-1.368948650E+01-7.493599101E+01+
*       1.5069804949E+01               0
GRID*               1975               0-1.941148167E+01-7.549070156E+01+
*       1.4412168636E+01               0
GRID*               1976               0-1.871803353E+01-8.077427486E+01+
*       1.5000029943E+01               0
GRID*               1977               0-1.396436084E+01-7.469924633E+01+
*       5.0698049488E+00               0
GRID*               1978               0-1.899290787E+01-8.053753019E+01+
*       5.0000299432E+00               0
GRID*               1979               0-1.968635601E+01-7.525395688E+01+
*       4.4121686364E+00               0
GRID*               1980               0-1.629187844E+00-7.241723347E+01+
*       5.0109441977E+00               0
GRID*               1981               0-3.705350181E+00-6.807776433E+01+
*       6.4298861027E+00               0
GRID*               1982               02.7605662659E+00-6.852672468E+01+
*       5.6890617087E+00               0
GRID*               1983               0-8.317881701E+00-6.719751892E+01+
*       6.4298861027E+00               0
GRID*               1984               0-1.314448230E+01-6.267974226E+01+
*       1.0875082245E+01               0
GRID*               1985               0-1.441390291E+01-6.396963756E+01+
*       4.4451961426E+00               0
GRID*               1986               0-1.088759103E+01-7.071797527E+01+
*       5.0698049488E+00               0
GRID*               1987               0-1.571419163E+01-6.620019861E+01+
*       9.5150010914E+00               0
GRID*               1988               0-1.583925763E+01-6.957373527E+01+
*       5.0698049488E+00               0
GRID*               1989               0-2.156125281E+01-7.012844582E+01+
*       4.4121686364E+00               0
GRID*               1990               0-1.736714475E+01-7.087320152E+01+
*       1.1889650693E+01               0
GRID*               1991               0-2.101852264E+01-6.749840047E+01+
*       6.8198457442E+00               0
GRID*               1992               0-2.308913992E+01-7.142791207E+01+
*       1.1232014381E+01               0
GRID*               1993               0-1.886875151E+01-7.286065621E+01+
*       1.6819845744E+01               0
GRID*               1994               0-2.016194307E+01-6.825865185E+01+
*       1.6819845744E+01               0
GRID*               1995               0-9.522289224E+00-2.026215599E+01+
*       -4.472133445E+00               0
GRID*               1996               0-6.822319601E+00-1.878782176E+01+
*       -7.142867988E+00               0
GRID*               1997               0-8.440432002E+00-1.533239622E+01+
*       -1.615001434E+00               0
GRID*               1998               0-7.722756421E+00-1.858057409E+01+
*       1.7589899158E-01               0
GRID*               1999               0-6.104644021E+00-2.203599962E+01+
*       -5.351967563E+00               0
GRID*               2000               0-5.022786799E+00-1.710623986E+01+
*       -2.494835551E+00               0
GRID*               2001               0-4.946051362E-01-2.888722308E+01+
*       5.2897540169E+00               0
GRID*               2002               0-1.322551086E+01-2.138595272E+01+
*       3.0878520126E+00               0
GRID*               2003               0-9.807865654E+00-2.315979636E+01+
*       2.2080178949E+00               0
GRID*               2004               0-1.066979644E+01-1.718373098E+01+
*       5.2617104028E+00               0
GRID*               2005               0-1.275490567E+01-2.176295325E+01+
*       7.2938293061E+00               0
GRID*               2006               0-3.203655394E+00-1.677551724E+01+
*       8.4012070981E+00               0
GRID*               2007               0-5.022394352E+00-1.710636739E+01+
*       3.2194883719E+00               0
GRID*               2008               0-7.969434372E+00-1.570952428E+01+
*       8.3052997831E+00               0
GRID*               2009               0-8.440039555E+00-1.533252376E+01+
*       4.0993224896E+00               0
GRID*               2010               0-5.022437929E+00-1.710635323E+01+
*       3.6234127048E-01               0
GRID*               2011               0-8.440083132E+00-1.533250960E+01+
*       1.2421753882E+00               0
GRID*               2012               0-1.026853217E+01-2.249792714E+01+
*       -2.805466699E+00               0
GRID*               2013               0-6.850886972E+00-2.427177077E+01+
*       -3.685300817E+00               0
GRID*               2014               0-1.235364141E+01-2.707714941E+01+
*       -7.733477959E-01               0
GRID*               2015               0-9.170207665E+002.4091187476E+01+
*       2.2975865040E+01               0
GRID*               2016               0-6.442910659E+002.4353756429E+01+
*       2.4953530723E+01               0
GRID*               2017               0-7.154933768E+001.9066368671E+01+
*       2.1262729732E+01               0
GRID*               2018               0-8.807851445E+002.4813130033E+01+
*       1.7741015078E+01               0
GRID*               2019               0-8.095828335E+003.0100517791E+01+
*       2.1431816069E+01               0
GRID*               2020               0-7.811346577E+001.6330930858E+01+
*       2.1785400013E+01               0
GRID*               2021               0-1.218076451E+011.8137547031E+01+
*       2.1900114443E+01               0
GRID*               2022               0-1.010988031E+011.5664678170E+01+
*       2.4400450408E+01               0
GRID*               2023               0-5.084049571E+001.6593499810E+01+
*       2.3763065696E+01               0
GRID*               2024               0-9.453467503E+001.8400115984E+01+
*       2.3877780127E+01               0
GRID*               2025               0-7.810997707E+001.6331044230E+01+
*       1.8928223191E+01               0
GRID*               2026               0-9.236832413E+001.4313466004E+01+
*       1.6822242599E+01               0
GRID*               2027               0-7.810954130E+001.6331058391E+01+
*       1.6071076089E+01               0
GRID*               2028               0-9.236788836E+001.4313480165E+01+
*       1.3965095498E+01               0
GRID*               2029               0-8.786498448E+001.5710694827E+01+
*       1.0634091638E+01               0
GRID*               2030               0-5.083700701E+001.6593613182E+01+
*       2.0905888874E+01               0
GRID*               2031               0-1.360659922E+011.6119968805E+01+
*       1.9794133852E+01               0
GRID*               2032               0-1.024460353E+011.4704899142E+01+
*       1.8928278724E+01               0
GRID*               2033               0-1.254313727E+011.4038646455E+01+
*       2.1543329119E+01               0
GRID*               2034               0-1.167043824E+011.2687320916E+01+
*       1.6822298133E+01               0
GRID*               2035               0-1.024444240E+011.4705070728E+01+
*       2.1785399788E+01               0
GRID*               2036               0-1.254297613E+011.4038818040E+01+
*       2.4400450183E+01               0
GRID*               2037               0-6.874081222E+002.0121015761E+01+
*       1.7021667330E+01               0
GRID*               2038               0-4.146784216E+002.0383584714E+01+
*       1.8999333013E+01               0
GRID*               2039               0-1.768969296E+012.3285956221E+01+
*       1.6029041925E+01               0
GRID*               2040               0-1.188738941E+012.2852173787E+01+
*       1.7397449322E+01               0
GRID*               2041               0-1.286293373E+012.2231810223E+01+
*       1.1960464871E+01               0
GRID*               2042               0-4.341562963E+016.4803787378E+01+
*       1.5518371635E+01               0
GRID*               2043               0-4.075698753E+015.7528327998E+01+
*       1.4158839026E+01               0
GRID*               2044               0-4.493689057E+015.9374503510E+01+
*       1.4158839026E+01               0
GRID*               2045               0-3.560134594E+016.9451864183E+01+
*       1.5518371635E+01               0
GRID*               2046               0-2.956690060E+016.8985392772E+01+
*       1.4557148917E+01               0
GRID*               2047               0-2.939206303E+016.4034340435E+01+
*       1.4557148917E+01               0
GRID*               2048               0-4.848898583E+016.6863318474E+01+
*       1.4999935171E+01               0
GRID*               2049               0-4.900094047E+015.8430563687E+01+
*       1.4732122329E+01               0
GRID*               2050               0-4.431423478E+017.0170042700E+01+
*       1.5518371635E+01               0
GRID*               2051               0-2.976630896E+015.7807862848E+01+
*       3.3333162997E+00               0
GRID*               2052               0-3.146141113E+015.6166384279E+01+
*       8.0098056462E+00               0
GRID*               2053               0-3.468835608E+015.6923752359E+01+
*       4.6764893465E+00               0
GRID*               2054               0-3.151108509E+015.4337229986E+01+
*       3.3333162997E+00               0
GRID*               2055               0-3.058603482E+01-5.598786616E+01+
*       1.4283622171E+01               0
GRID*               2056               0-2.708354093E+01-6.461838542E+01+
*       9.1370514612E+00               0
GRID*               2057               0-2.089345663E+01-6.412486381E+01+
*       1.1265041887E+01               0
GRID*               2058               0-2.059861289E+01-5.468967938E+01+
*       1.1111862809E+01               0
GRID*               2059               0-1.478406651E+01-5.716976579E+01+
*       9.2856873527E+00               0
GRID*               2060               0-1.614217588E+01-5.240758427E+01+
*       1.1507157877E+01               0
GRID*               2061               0-1.798640344E+01-5.099926065E+01+
*       1.6666666667E+01               0
GRID*               2062               0-1.662829407E+01-5.576144217E+01+
*       1.4445196143E+01               0
GRID*               2063               0-1.217185707E+01-5.347934705E+01+
*       1.4840491210E+01               0
GRID*               2064               0-1.850898994E+01-6.358564894E+01+
*       1.4445196143E+01               0
GRID*               2065               0-1.893843038E+01-4.865620642E+01+
*       1.2804018253E+01               0
GRID*               2066               0-1.312388401E+01-5.113629282E+01+
*       1.0977842797E+01               0
GRID*               2067               0-1.614217588E+01-5.240758427E+01+
*       8.1738245434E+00               0
GRID*               2068               0-1.893843038E+01-4.865620642E+01+
*       9.4706849200E+00               0
GRID*               2069               04.1944606983E+01-4.511244054E+01+
*       1.0846269110E+01               0
GRID*               2070               04.1835355371E+01-5.005692819E+01+
*       1.4944150879E+01               0
GRID*               2071               04.0305634869E+01-4.489141261E+01+
*       1.5902118231E+01               0
GRID*               2072               03.6855220798E+01-4.456561794E+01+
*       1.2568784898E+01               0
GRID*               2073               03.8384941300E+01-4.973113352E+01+
*       1.1610817545E+01               0
GRID*               2074               03.6745969186E+01-4.951010559E+01+
*       1.6666666667E+01               0
GRID*               2075               03.5177040178E+01-3.573218162E+01+
*       4.5715533596E+00               0
GRID*               2076               03.8882301251E+01-3.900106970E+01+
*       5.9021182313E+00               0
GRID*               2077               03.5370730826E+01-3.748970385E+01+
*       1.4571553360E+01               0
GRID*               2078               03.9075991899E+01-4.075859193E+01+
*       1.5902118231E+01               0
GRID*               2079               03.5071326904E+01-3.240748938E+01+
*       1.4571553360E+01               0
GRID*               2080               03.8776587977E+01-3.567637746E+01+
*       1.5902118231E+01               0
GRID*               2081               0-3.621260905E+01-3.902726007E+01+
*       1.0221639037E+01               0
GRID*               2082               0-4.128188584E+01-3.800773710E+01+
*       1.1399008013E+01               0
GRID*               2083               0-3.729571293E+01-3.672207672E+01+
*       6.3103805687E+00               0
GRID*               2084               03.8945203643E+01-2.855748923E+01+
*       1.5350118911E+01               0
GRID*               2085               04.2698721868E+01-4.215153385E+01+
*       1.5902118231E+01               0
GRID*               2086               04.7370877501E+01-4.405296754E+01+
*       1.5146442314E+01               0
GRID*               2087               04.2880201104E+01-3.810650641E+01+
*       1.5902118231E+01               0
GRID*               2088               03.6855220798E+01-4.456561794E+01+
*       9.2354515646E+00               0
GRID*               2089               04.1246613204E+01-4.250970920E+01+
*       1.9699539641E+00               0
GRID*               2090               04.4676352704E+01-4.548409594E+01+
*       4.9441508786E+00               0
GRID*               2091               0-2.286300930E+014.1726288170E+01+
*       1.6666683710E+01               0
GRID*               2092               0-2.626090193E+013.9397882357E+01+
*       1.6666683710E+01               0
GRID*               2093               0-5.600424303E+01-1.757684023E+01+
*       1.0226110463E+01               0
GRID*               2094               0-5.407552621E+01-1.862563353E+01+
*       5.1288520496E+00               0
GRID*               2095               0-5.973593233E+01-1.983454073E+01+
*       5.0972584131E+00               0
GRID*               2096               0-5.873105468E+01-1.589254269E+01+
*       9.7126839717E+00               0
GRID*               2097               0-5.307064856E+01-1.468363550E+01+
*       9.7442776082E+00               0
GRID*               2098               0-5.680233786E+01-1.694133599E+01+
*       4.6154255586E+00               0
GRID*               2099               0-4.693867851E+01-4.079885833E+00+
*       1.6666666667E+01               0
GRID*               2100               0-4.472746738E+01-1.337114332E+00+
*       1.6666666667E+01               0
GRID*               2101               0-4.724549323E+01-2.310802957E-01+
*       1.6666666667E+01               0
GRID*               2102               0-5.228028389E+01-1.115825607E+01+
*       1.1795535760E+01               0
GRID*               2103               0-5.454887012E+01-1.363077525E+01+
*       1.5128852050E+01               0
GRID*               2104               0-4.851690624E+01-8.655880814E+00+
*       1.2854454778E+01               0
GRID*               2105               0-5.227984840E+01-1.115819875E+01+
*       8.4621683493E+00               0
GRID*               2106               0-4.658045926E+01-1.386555778E+01+
*       1.1316623117E+01               0
GRID*               2107               0-4.663449858E+01-1.542925492E+01+
*       1.5128852050E+01               0
GRID*               2108               0-4.287112093E+01-1.292687966E+01+
*       1.6187771068E+01               0
GRID*               2109               0-5.040677775E+01-1.388831700E+01+
*       1.5128852050E+01               0
GRID*               2110               0-4.664340010E+01-1.138594174E+01+
*       1.6187771068E+01               0
GRID*               2111               0-4.234307670E+01-1.726870365E+01+
*       1.5023314553E+01               0
GRID*               2112               0-6.241719364E+00-7.153698806E+01+
*       5.0109441977E+00               0
GRID*               2113               07.6960480860E+00-7.098805545E+01+
*       1.0535864565E+01               0
GRID*               2114               09.1568045349E+00-7.369234061E+01+
*       1.4846802857E+01               0
GRID*               2115               07.3441282546E+00-6.950982948E+01+
*       1.5689061709E+01               0
GRID*               2116               04.8756165602E+00-7.306673864E+01+
*       1.4846802857E+01               0
GRID*               2117               01.1880006633E+01-6.375995033E+01+
*       1.0918842756E+01               0
GRID*               2118               01.0205664769E+01-6.580662569E+01+
*       5.6890617087E+00               0
GRID*               2119               01.6202299597E+01-6.276103169E+01+
*       5.2297810476E+00               0
GRID*               2120               01.2018341049E+01-6.998913682E+01+
*       4.8468028568E+00               0
GRID*               2121               01.1685682660E+01-6.226699570E+01+
*       5.5098500988E+00               0
GRID*               2122               07.1355953690E+00-6.929333116E+01+
*       5.6890617087E+00               0
GRID*               2123               03.3062939760E+00-7.487856424E+01+
*       9.8577470545E+00               0
GRID*               2124               06.2228155513E+00-7.708571278E+01+
*       4.8468028568E+00               0
GRID*               2125               02.0385161032E-02-7.679371045E+01+
*       5.0109441977E+00               0
GRID*               2126               04.5732425462E+00-7.270923581E+01+
*       4.8468028568E+00               0
GRID*               2127               03.1885499234E+017.0410150475E+01+
*       5.1498424262E+00               0
GRID*               2128               03.5868860494E+016.5686834539E+01+
*       4.6981199713E+00               0
GRID*               2129               03.0328068722E+016.6749576806E+01+
*       9.8479623975E+00               0
GRID*               2130               02.8029684840E+016.7866267798E+01+
*       5.1498424262E+00               0
GRID*               2131               03.2013046100E+016.3142951863E+01+
*       4.6981199713E+00               0
GRID*               2132               02.3916751823E+016.9272334835E+01+
*       5.1498424262E+00               0
GRID*               2133               02.2968851237E+017.3821884118E+01+
*       5.1498424262E+00               0
GRID*               2134               02.0261333206E+016.9094911389E+01+
*       5.1948732440E+00               0
GRID*               2135               02.2689288846E+017.1295469296E+01+
*       1.0344715670E+01               0
GRID*               2136               01.9313432621E+017.3644460672E+01+
*       5.1948732440E+00               0
GRID*               2137               02.8309428757E+016.8399607030E+01+
*       1.5149842426E+01               0
GRID*               2138               03.2292790017E+016.3676291094E+01+
*       1.4698119971E+01               0
GRID*               2139               03.1724060410E+017.0793724766E+01+
*       1.5149842426E+01               0
GRID*               2140               03.5707421670E+016.6070408831E+01+
*       1.4698119971E+01               0
GRID*               2141               01.9823090885E+017.3869308155E+01+
*       1.5194873244E+01               0
GRID*               2142               02.3478509502E+017.4046731600E+01+
*       1.5149842426E+01               0
GRID*               2143               02.6691726694E+017.7345198382E+01+
*       1.0149882955E+01               0
GRID*               2144               02.3036308077E+017.7167774936E+01+
*       1.0194913773E+01               0
GRID*               2145               02.3825528733E+017.9919037241E+01+
*       1.5000040529E+01               0
GRID*               2146               02.3315870469E+017.9694189758E+01+
*       5.0000405288E+00               0
GRID*               2147               0-3.956279112E+015.8892290908E-01+
*       1.1253669016E+01               0
GRID*               2148               0-4.538101271E+012.3688437825E+00+
*       8.6881885952E+00               0
GRID*               2149               0-4.363850068E+01-4.076021251E+00+
*       9.2321470875E+00               0
GRID*               2150               0-3.890924580E+01-3.117035206E+00+
*       1.5898813754E+01               0
GRID*               2151               0-4.065175783E+013.3278298282E+00+
*       1.5354855262E+01               0
GRID*               2152               0-4.472746738E+01-1.337114332E+00+
*       1.3333333333E+01               0
GRID*               2153               03.1346715657E+017.5532852289E+01+
*       1.0149901727E+01               0
GRID*               2154               02.7678057256E+017.2656140337E+01+
*       1.5149842426E+01               0
GRID*               2155               03.2680065450E+017.6716099885E+01+
*       1.5000059301E+01               0
GRID*               2156               02.8025076487E+017.8528445978E+01+
*       1.5000040529E+01               0
GRID*               2157               0-7.196841094E+013.2119329135E+00+
*       1.4894264921E+01               0
GRID*               2158               0-6.758329380E+018.1069262345E+00+
*       1.5414081753E+01               0
GRID*               2159               0-7.045150977E+017.2054757631E+00+
*       1.0308346674E+01               0
GRID*               2160               0-7.633115016E+015.8806104089E+00+
*       1.4894264921E+01               0
GRID*               2161               0-7.315566196E+01-1.003129689E+00+
*       1.4894264921E+01               0
GRID*               2162               0-6.937949818E+01-1.569653300E+00+
*       1.4242357933E+01               0
GRID*               2163               0-7.106046314E+011.7439588303E+00+
*       9.1366228543E+00               0
GRID*               2164               0-6.819224716E+012.6454093017E+00+
*       1.4242357933E+01               0
GRID*               2165               0-7.694294688E+011.3298772659E+00+
*       4.8942649209E+00               0
GRID*               2166               0-7.721066402E+01-2.882597100E+00+
*       4.7479663947E+00               0
GRID*               2167               0-7.510434405E+01-1.901991924E+00+
*       9.6422313156E+00               0
GRID*               2168               0-8.109699474E+01-1.341792484E+00+
*       9.8942629980E+00               0
GRID*               2169               0-8.320331471E+01-2.322397660E+00+
*       4.9999980771E+00               0
GRID*               2170               0-8.136471188E+01-5.554266850E+00+
*       9.7479644718E+00               0
GRID*               2171               0-7.132818028E+01-2.468515536E+00+
*       8.9903243281E+00               0
GRID*               2172               0-7.342337910E+01-5.215604055E+00+
*       1.4747966395E+01               0
GRID*               2173               0-7.700049623E+01-3.019270625E+00+
*       1.4747966395E+01               0
GRID*               2174               0-7.673277909E+011.1932037414E+00+
*       1.4894264921E+01               0
GRID*               2175               0-8.299314692E+01-2.459071185E+00+
*       1.4999998077E+01               0
GRID*               2176               02.5413206501E+016.6497750653E+01+
*       1.1508331621E+01               0
GRID*               2177               02.7098183879E+016.2891125710E+01+
*       6.3584891952E+00               0
GRID*               2178               02.9396567761E+016.1774434718E+01+
*       1.1056609167E+01               0
GRID*               2179               03.9047039678E+016.1491947720E+01+
*       1.0994273218E+01               0
GRID*               2180               04.0604470190E+016.5152521389E+01+
*       6.2961532462E+00               0
GRID*               2181               03.9748100633E+016.8478385804E+01+
*       9.6981876091E+00               0
GRID*               2182               04.4483710329E+016.7944072654E+01+
*       1.1296220884E+01               0
GRID*               2183               04.1305531145E+017.2138959474E+01+
*       5.0000676378E+00               0
GRID*               2184               03.6616118234E+015.8262475596E+01+
*       1.1249406284E+01               0
GRID*               2185               03.8129433176E+015.8106798208E+01+
*       1.6551286312E+01               0
GRID*               2186               03.5824744925E+016.1870583482E+01+
*       1.4698119971E+01               0
GRID*               2187               03.2759365001E+015.9843562491E+01+
*       1.4698119971E+01               0
GRID*               2188               03.5064053252E+015.6079777217E+01+
*       1.6551286312E+01               0
GRID*               2189               04.0803879855E+015.9897659670E+01+
*       6.2961532462E+00               0
GRID*               2190               03.6068270159E+016.0431972820E+01+
*       4.6981199713E+00               0
GRID*               2191               07.4242446694E+003.5536665649E+01+
*       8.0548818986E+00               0
GRID*               2192               0-2.244379585E+013.8437359090E+01+
*       8.1904184506E+00               0
GRID*               2193               0-2.545448430E+013.9759565850E+01+
*       3.3333162998E+00               0
GRID*               2194               0-4.802848155E+001.7648260273E+01+
*       1.6664826472E+01               0
GRID*               2195               0-2.214005766E+001.7164412154E+01+
*       2.0905929964E+01               0
GRID*               2196               0-1.933153219E+001.8219059245E+01+
*       1.6664867562E+01               0
GRID*               2197               0-8.226391390E+001.7883960830E+01+
*       2.6620197707E+01               0
GRID*               2198               0-8.882804199E+001.5148523017E+01+
*       2.7142867988E+01               0
GRID*               2199               0-4.453457485E+001.9623823923E+01+
*       2.6620197707E+01               0
GRID*               2200               0-5.109870294E+001.6888386110E+01+
*       2.7142867988E+01               0
GRID*               2201               0-4.794941121E+01-1.169980318E+01+
*       5.1288520496E+00               0
GRID*               2202               0-5.099846750E+01-1.523290049E+01+
*       5.1288520496E+00               0
GRID*               2203               0-5.293447899E+01-1.002316620E+01+
*       3.3333162998E+00               0
GRID*               2204               0-5.372527915E+01-1.354860295E+01+
*       4.6154255586E+00               0
GRID*               2205               0-4.950352614E+01-1.956588166E+01+
*       5.1288520496E+00               0
GRID*               2206               0-4.789086841E+01-2.480536961E+01+
*       5.8917670433E+00               0
GRID*               2207               0-5.322824733E+01-2.115821016E+01+
*       1.0068560285E+01               0
GRID*               2208               0-5.238793657E+01-2.435615878E+01+
*       4.9397082352E+00               0
GRID*               2209               0-5.161558960E+01-2.639769810E+01+
*       1.0831475279E+01               0
GRID*               2210               0-5.834149843E+01-1.224532598E+01+
*       4.6154255586E+00               0
GRID*               2211               0-5.755069827E+01-8.719889225E+00+
*       3.3333162998E+00               0
GRID*               2212               0-5.500666005E+01-9.473901206E+00+
*       7.9487418584E+00               0
GRID*               2213               03.6197784006E+011.3446658792E+00+
*       5.4207360083E+00               0
GRID*               2214               03.0172878450E+019.0766905682E-01+
*       3.1118379247E+00               0
GRID*               2215               03.4835016341E+014.8165485407E+00+
*       4.9851860049E+00               0
GRID*               2216               03.9769975030E+015.6252010621E+00+
*       3.6470420442E+00               0
GRID*               2217               03.5107837138E+011.7163215782E+00+
*       1.7736939641E+00               0
GRID*               2218               03.3745069474E+015.1882042397E+00+
*       1.3381439607E+00               0
GRID*               2219               04.1135777326E+011.0319118148E+00+
*       9.2920541063E+00               0
GRID*               2220               04.5158322078E+013.7748228705E+00+
*       6.9803753775E+00               0
GRID*               2221               04.5434177507E+01-4.468106777E-01+
*       8.9783453954E+00               0
GRID*               2222               04.3638490080E+01-2.332404556E+00+
*       5.6450120621E+00               0
GRID*               2223               04.3362634651E+011.8892289925E+00+
*       3.6470420442E+00               0
GRID*               2224               04.7661034832E+014.1050650002E-01+
*       3.3333333333E+00               0
GRID*               2225               04.0291249808E+014.9780479755E+00+
*       1.3647042044E+01               0
GRID*               2226               04.4589649990E+013.4993254830E+00+
*       1.6666666667E+01               0
GRID*               2227               04.0567105237E+017.5641442728E-01+
*       1.5645012062E+01               0
GRID*               2228               04.5434177507E+01-4.468106777E-01+
*       1.2311678729E+01               0
GRID*               2229               03.9940008198E+011.0828936877E+00+
*       3.6470420442E+00               0
GRID*               2230               04.0215863627E+01-3.138739861E+00+
*       5.6450120621E+00               0
GRID*               2231               03.5277870307E+01-2.825985796E+00+
*       1.7736939641E+00               0
GRID*               2232               08.9482716492E+00-7.347584228E+01+
*       4.8468028568E+00               0
GRID*               2233               0-6.917837439E+00-5.802335241E+01+
*       4.8404912101E+00               0
GRID*               2234               01.3360024524E+01-6.022032034E+01+
*       1.0739631146E+01               0
GRID*               2235               01.0152074276E+01-5.795720382E+01+
*       5.5098500988E+00               0
GRID*               2236               01.4668691213E+01-5.845123981E+01+
*       5.2297810476E+00               0
GRID*               2237               01.4813251371E+01-5.895794774E+01+
*       1.5229781048E+01               0
GRID*               2238               01.1847535409E+01-6.252828002E+01+
*       1.5509850099E+01               0
GRID*               2239               0-7.182539881E+01-7.579321060E+00+
*       1.1777090294E+01               0
GRID*               2240               0-7.006764750E+01-1.002090321E+01+
*       1.7029123899E+01               0
GRID*               2241               0-7.361430989E+01-8.556048442E+00+
*       1.4747966395E+01               0
GRID*               2242               0-7.474606441E+01-1.010520525E+01+
*       9.9657357573E+00               0
GRID*               2243               0-7.298831310E+01-1.254678740E+01+
*       1.5217769363E+01               0
GRID*               2244               0-7.029319247E+01-1.565121101E+01+
*       1.5217769363E+01               0
GRID*               2245               01.2497652812E+00-3.327586521E+01+
*       1.3271396333E+01               0
GRID*               2246               05.9024681270E+00-3.451754543E+01+
*       1.9062354772E+01               0
GRID*               2247               02.1916710461E+00-3.816840007E+01+
*       1.4209041560E+01               0
GRID*               2248               01.0733815382E+00-3.278558291E+01+
*       7.2947853359E+00               0
GRID*               2249               04.7841786190E+00-2.913472827E+01+
*       1.2148098548E+01               0
GRID*               2250               05.7260843840E+00-3.402726313E+01+
*       1.3085743776E+01               0
GRID*               2251               04.9542471319E-01-4.138861715E+01+
*       8.1204693741E+00               0
GRID*               2252               05.1481275590E+00-4.263029736E+01+
*       1.3911427814E+01               0
GRID*               2253               0-2.125216516E+00-3.844333549E+01+
*       1.4209041560E+01               0
GRID*               2254               08.3123999653E-01-4.290523278E+01+
*       1.3911427814E+01               0
GRID*               2255               0-3.414072945E+00-4.292290271E+01+
*       1.5133220726E+01               0
GRID*               2256               0-3.749888228E+00-4.140628707E+01+
*       9.3422622867E+00               0
GRID*               2257               0-2.006422699E+014.0263541014E+01+
*       1.1523768817E+01               0
GRID*               2258               08.0359510111E+00-4.145119418E+01+
*       3.9114278137E+00               0
GRID*               2259               09.7321973441E+00-3.823097710E+01+
*       1.0000000000E+01               0
GRID*               2260               07.5315723077E+00-4.532580925E+01+
*       9.4050564650E+00               0
GRID*               2261               01.2115642093E+01-4.092648899E+01+
*       5.4936286512E+00               0
GRID*               2262               09.2278186406E+00-4.210559217E+01+
*       1.5493628651E+01               0
GRID*               2263               06.1806074061E+00-4.627720121E+01+
*       3.9114278137E+00               0
GRID*               2264               01.0260298488E+01-4.575249601E+01+
*       5.4936286512E+00               0
GRID*               2265               01.0682742479E+00-4.579718931E+01+
*       3.9114278137E+00               0
GRID*               2266               0-3.177038694E+00-4.581485923E+01+
*       5.1332207263E+00               0
GRID*               2267               0-1.888182265E+00-4.133529202E+01+
*       4.2090415604E+00               0
GRID*               2268               0-4.051425908E+014.3631619756E+01+
*       1.1683385804E+01               0
GRID*               2269               0-3.479768179E+014.1449196311E+01+
*       1.3873070958E+01               0
GRID*               2270               0-3.797724698E+014.6162090972E+01+
*       1.1143682251E+01               0
GRID*               2271               0-4.049878574E+014.7300627491E+01+
*       1.4476998549E+01               0
GRID*               2272               0-3.731922056E+014.2587732830E+01+
*       1.7206387255E+01               0
GRID*               2273               0-3.478220845E+014.5118204046E+01+
*       1.6666683702E+01               0
GRID*               2274               0-4.206138321E+015.0068687632E+01+
*       4.4769985488E+00               0
GRID*               2275               0-4.135625288E+015.4522345005E+01+
*       4.1588390261E+00               0
GRID*               2276               0-3.836855107E+014.9136005978E+01+
*       7.8103318822E+00               0
GRID*               2277               0-3.673611001E+015.0860179193E+01+
*       3.3333333333E+00               0
GRID*               2278               0-3.766342074E+015.3589663351E+01+
*       7.4921723594E+00               0
GRID*               2279               0-4.145031834E+014.5720475468E+01+
*       4.4769985488E+00               0
GRID*               2280               0-4.164545076E+013.7835612206E+01+
*       3.7363714743E+00               0
GRID*               2281               0-4.748906604E+015.3167449478E+01+
*       1.4732122329E+01               0
GRID*               2282               0-4.342501614E+015.4111389300E+01+
*       1.4158839026E+01               0
GRID*               2283               0-4.413014647E+014.9657731928E+01+
*       1.4476998549E+01               0
GRID*               2284               0-4.302361595E+014.4133128289E+01+
*       1.4476998549E+01               0
GRID*               2285               0-3.984405076E+013.9420233628E+01+
*       1.7206387255E+01               0
GRID*               2286               02.4469265956E+01-5.594300211E+01+
*       1.2949831231E+01               0
GRID*               2287               02.4292554660E+01-5.382472819E+01+
*       1.1814800524E+01               0
GRID*               2288               02.1601798262E+01-5.824449018E+01+
*       1.0377914905E+01               0
GRID*               2289               02.0567397857E+01-5.629459433E+01+
*       8.5631143808E+00               0
GRID*               2290               01.7464044040E+01-5.505738775E+01+
*       5.2020964356E+00               0
GRID*               2291               01.8861804921E+01-5.923560654E+01+
*       5.2297810476E+00               0
GRID*               2292               01.3270930331E+01-5.427302102E+01+
*       5.2020964356E+00               0
GRID*               2293               07.8677858297E+00-1.624786731E+01+
*       -4.088395420E+00               0
GRID*               2294               08.4245458635E+00-1.514307369E+01+
*       -7.142876953E+00               0
GRID*               2295               07.8678506590E+00-1.624783680E+01+
*       -1.231245940E+00               0
GRID*               2296               07.5330988804E+00-1.918098713E+01+
*       1.5280531484E+00               0
GRID*               2297               01.2006902652E+01-1.627531424E+01+
*       4.6133254509E-01               0
GRID*               2298               09.8789908974E+00-1.388568831E+01+
*       3.1211235382E+00               0
GRID*               2299               09.5442391188E+00-1.681883864E+01+
*       5.8804226263E+00               0
GRID*               2300               01.0131577175E+01-2.319349194E+01+
*       6.0689138054E+00               0
GRID*               2301               01.2594240708E+01-2.264996754E+01+
*       6.4982372421E-01               0
GRID*               2302               01.3056442426E+01-2.714856081E+01+
*       -7.379910633E-01               0
GRID*               2303               07.9953005988E+00-2.367958040E+01+
*       1.4023836091E-01               0
GRID*               2304               01.0457964132E+01-2.313605600E+01+
*       -5.278851720E+00               0
GRID*               2305               01.6096309910E+01-2.551655322E+01+
*       -7.379910633E-01               0
GRID*               2306               01.4981246907E+01-9.688613486E+00+
*       -4.902132702E-01               0
GRID*               2307               01.7586737317E+01-6.622197909E+00+
*       4.5331959066E-01               0
GRID*               2308               04.5281930511E+00-1.670894903E+01+
*       -7.142876953E+00               0
GRID*               2309               0-1.969602761E+01-1.608452494E+01+
*       -5.965338659E-03               0
GRID*               2310               0-2.180166690E+01-2.078981616E+01+
*       -1.824946158E+00               0
GRID*               2311               0-1.684771837E+01-1.870636052E+01+
*       2.0362536508E+00               0
GRID*               2312               0-2.316775578E+01-1.087640483E+01+
*       -2.902882975E+00               0
GRID*               2313               0-2.107774757E+01-1.355807623E+01+
*       -4.847685689E+00               0
GRID*               2314               08.2749716356E+01-3.024640940E+00+
*       1.5000000000E+01               0
GRID*               2315               08.2464535299E+01-8.011809168E+00+
*       1.5000007233E+01               0
GRID*               2316               0-1.572783078E+01-9.265326785E+00+
*       6.4333606168E+00               0
GRID*               2317               0-1.743758895E+01-5.970021700E+00+
*       4.0018832541E+00               0
GRID*               2318               0-1.930727834E+01-9.495021570E+00+
*       3.2923779203E+00               0
GRID*               2319               0-1.904810614E+01-8.355020673E+00+
*       8.7498295968E+00               0
GRID*               2320               0-1.717841675E+01-4.830020803E+00+
*       9.4593349307E+00               0
GRID*               2321               0-2.075786431E+01-5.059715588E+00+
*       6.3183522341E+00               0
GRID*               2322               0-1.572782437E+01-9.265338441E+00+
*       3.5762189913E+00               0
GRID*               2323               0-1.743758254E+01-5.970033356E+00+
*       1.1447416286E+00               0
GRID*               2324               0-2.446129234E+01-8.682855125E+00+
*       4.0206725688E+00               0
GRID*               2325               0-2.420212015E+01-7.542854228E+00+
*       9.4781242454E+00               0
GRID*               2326               0-1.637711319E+01-1.908336104E+01+
*       6.2422309443E+00               0
GRID*               2327               0-1.436896090E+01-1.479852855E+01+
*       3.3897941961E+00               0
GRID*               2328               0-1.389835571E+01-1.517552908E+01+
*       7.5957714896E+00               0
GRID*               2329               0-1.893282761E+01-2.328558279E+01+
*       4.0683725542E+00               0
GRID*               2330               0-1.636311223E+01-1.482317981E+01+
*       1.0565323997E+01               0
GRID*               2331               0-1.884186971E+01-1.873101178E+01+
*       9.2117834516E+00               0
GRID*               2332               0-1.266394778E+01-1.720838224E+01+
*       1.2437240204E+01               0
GRID*               2333               0-2.461974857E+01-7.747879834E+00+
*       -2.902882975E+00               0
GRID*               2334               0-2.178603581E+01-1.340285353E+01+
*       1.9388373750E+00               0
GRID*               2335               0-2.393675508E+01-1.807954187E+01+
*       -1.824946158E+00               0
GRID*               2336               0-1.330383520E+01-2.268399081E+01+
*       2.5383423694E+01               0
GRID*               2337               0-8.878026645E+00-2.480607947E+01+
*       2.4877606631E+01               0
GRID*               2338               0-8.118785798E+00-2.034469713E+01+
*       2.3594364295E+01               0
GRID*               2339               0-1.021500736E+01-2.142440006E+01+
*       2.7050090679E+01               0
GRID*               2340               0-5.789198805E+00-2.354648872E+01+
*       2.6544273616E+01               0
GRID*               2341               0-1.164267654E+01-1.777709627E+01+
*       2.7050090679E+01               0
GRID*               2342               0-1.276930567E+01-2.028921791E+01+
*       2.7050090679E+01               0
GRID*               2343               0-7.216867990E+00-1.989918493E+01+
*       2.6544273616E+01               0
GRID*               2344               04.1776057782E+013.2615337478E+01+
*       7.8570421726E+00               0
GRID*               2345               04.3250507274E+013.4289017400E+01+
*       3.6582071781E+00               0
GRID*               2346               04.5037310076E+012.7448976281E+01+
*       4.1988349946E+00               0
GRID*               2347               03.8152961991E+013.5307355490E+01+
*       3.6582071781E+00               0
GRID*               2348               03.1263965546E+012.7588011871E+01+
*       1.4553417643E+01               0
GRID*               2349               03.3811658115E+013.1150654846E+01+
*       1.4553417643E+01               0
GRID*               2350               04.9414428935E+012.2452907931E+01+
*       9.4687678571E+00               0
GRID*               2351               05.1866820630E+012.3314604014E+01+
*       1.5269932863E+01               0
GRID*               2352               0-3.734340468E+012.7580753966E+01+
*       1.5573864733E+01               0
GRID*               2353               0-3.715455060E+013.3013688297E+01+
*       1.3932725962E+01               0
GRID*               2354               0-3.300160092E+013.5535840116E+01+
*       1.3932725962E+01               0
GRID*               2355               0-1.792345590E+014.4660201167E+01+
*       1.1423790954E+01               0
GRID*               2356               0-2.048300494E+014.3552527419E+01+
*       1.6666666667E+01               0
GRID*               2357               0-3.905278591E+011.8880112149E+01+
*       5.7817010226E+00               0
GRID*               2358               0-3.553270830E+012.5540122551E+01+
*       5.5738647333E+00               0
GRID*               2359               0-4.125479454E+011.5913912033E+01+
*       4.4718112328E+00               0
GRID*               2360               0-4.366181260E+011.9984281237E+01+
*       5.7817010226E+00               0
GRID*               2361               0-4.098994119E+011.1595693118E+01+
*       4.4718112328E+00               0
GRID*               2362               0-4.322865222E+011.3578205657E+01+
*       8.9541188138E+00               0
GRID*               2363               0-4.680296227E+011.6119372904E+01+
*       4.4823075810E+00               0
GRID*               2364               0-4.653810893E+011.1801153989E+01+
*       4.4823075810E+00               0
GRID*               2365               04.2748018534E+014.8942236387E+00+
*       3.6470420442E+00               0
GRID*               2366               0-4.644802325E+011.4202938206E+01+
*       1.4482307581E+01               0
GRID*               2367               02.1757787885E+016.6320327208E+01+
*       1.1553362439E+01               0
GRID*               2368               02.3588865967E+016.4965558721E+01+
*       1.6358489195E+01               0
GRID*               2369               02.0864948312E+016.9763277363E+01+
*       1.5194873244E+01               0
GRID*               2370               01.7632986398E+016.7448203970E+01+
*       1.5194873244E+01               0
GRID*               2371               02.0356904053E+016.2650485328E+01+
*       1.6358489195E+01               0
GRID*               2372               01.2894669075E+016.8293160903E+01+
*       1.4578087132E+01               0
GRID*               2373               01.2804961060E+017.3151659301E+01+
*       1.4356348449E+01               0
GRID*               2374               02.2985250862E+016.4297192747E+01+
*       6.3584891952E+00               0
GRID*               2375               01.4428068068E+017.3104756884E+01+
*       9.5512216927E+00               0
GRID*               2376               01.4707630459E+017.5631171706E+01+
*       4.3563484487E+00               0
GRID*               2377               01.3346191543E+01-4.857951140E+01+
*       1.0695725087E+01               0
GRID*               2378               01.1536002177E+01-5.049461367E+01+
*       5.4936286512E+00               0
GRID*               2379               08.6802517332E+00-5.390104206E+01+
*       5.1609320900E+00               0
GRID*               2380               01.0490441099E+01-5.198593979E+01+
*       1.0363028526E+01               0
GRID*               2381               08.7555129451E+00-4.820753244E+01+
*       1.0654560741E+01               0
GRID*               2382               01.0367517518E+01-6.606791001E+01+
*       1.5689061709E+01               0
GRID*               2383               08.2975837279E+011.7828488396E+00+
*       5.0000000000E+00               0
GRID*               2384               08.2690656223E+016.7700170669E+00+
*       4.9999927672E+00               0
GRID*               2385               01.3383417530E+01-4.090935758E+01+
*       1.5493628651E+01               0
GRID*               2386               01.3887796234E+01-3.703474251E+01+
*       1.0000000000E+01               0
GRID*               2387               01.7395319776E+01-3.838447323E+01+
*       1.6134934624E+01               0
GRID*               2388               01.5623165635E+01-4.227621971E+01+
*       1.1628563276E+01               0
GRID*               2389               01.6127544338E+01-3.840160464E+01+
*       6.1349346245E+00               0
GRID*               2390               01.3347659480E+01-4.436230033E+01+
*       1.5493628651E+01               0
GRID*               2391               01.7359561725E+01-4.183741599E+01+
*       1.6134934624E+01               0
GRID*               2392               01.6657854183E+01-4.543979365E+01+
*       1.2160295318E+01               0
GRID*               2393               02.0669756428E+01-4.291490930E+01+
*       1.2801601291E+01               0
GRID*               2394               01.8394250274E+01-4.500098993E+01+
*       1.6666666667E+01               0
GRID*               2395               01.4031825235E+01-4.444289169E+01+
*       5.4936286512E+00               0
GRID*               2396               01.8043727480E+01-4.191800734E+01+
*       6.1349346245E+00               0
GRID*               2397               01.6657854183E+01-4.543979365E+01+
*       8.8269619846E+00               0
GRID*               2398               01.9078416028E+01-4.508158128E+01+
*       3.3333333333E+00               0
GRID*               2399               02.0669756428E+01-4.291490930E+01+
*       9.4682679578E+00               0
GRID*               2400               01.4342307385E+01-4.762859062E+01+
*       5.4936286512E+00               0
GRID*               2401               01.9388898179E+01-4.826728021E+01+
*       3.3333333333E+00               0
GRID*               2402               08.6547605822E+008.1135271642E+01+
*       9.3563526521E+00               0
GRID*               2403               03.6627282881E+008.1277920174E+01+
*       9.3563479594E+00               0
GRID*               2404               04.8685245425E+008.3268165735E+01+
*       1.5000004203E+01               0
GRID*               2405               0-1.235077516E-018.3410814266E+01+
*       1.4999999511E+01               0
GRID*               2406               01.3599259129E+018.0424383593E+01+
*       9.3563681778E+00               0
GRID*               2407               01.3978729464E+018.2035178292E+01+
*       5.0000197291E+00               0
GRID*               2408               01.0201736241E+017.6702262617E+01+
*       4.3563484487E+00               0
GRID*               2409               09.0342309165E+008.2746066342E+01+
*       5.0000042034E+00               0
GRID*               2410               04.5913758647E+008.3152838304E+01+
*       5.0000042034E+00               0
GRID*               2411               0-1.792345590E+014.4660201167E+01+
*       8.0904576202E+00               0
GRID*               2412               0-1.831476000E+014.7634115964E+01+
*       1.1423807989E+01               0
GRID*               2413               0-1.592647378E+008.0749840711E+01+
*       9.1259444830E+00               0
GRID*               2414               0-4.006564294E-018.3295486835E+01+
*       4.9999995107E+00               0
GRID*               2415               01.4112807352E+01-9.843279399E+00+
*       1.6035711574E+01               0
GRID*               2416               02.3860436448E+01-8.644807472E-02+
*       2.5939865256E+01               0
GRID*               2417               02.3969552859E+012.7069362515E+00+
*       2.5939865256E+01               0
GRID*               2418               02.1139283615E+011.5583078747E-01+
*       2.5939865256E+01               0
GRID*               2419               02.0235795682E+015.3348808899E+00+
*       1.4862306163E+01               0
GRID*               2420               02.6781106881E+012.3285838525E+00+
*       1.4864806102E+01               0
GRID*               2421               02.4243663963E+016.8259669665E+00+
*       1.6298165226E+01               0
GRID*               2422               01.9920818185E+016.7281046664E+00+
*       1.9087697900E+01               0
GRID*               2423               02.2458261103E+012.2307215523E+00+
*       1.7654338776E+01               0
GRID*               2424               02.6466129384E+013.7218076289E+00+
*       1.9090197839E+01               0
GRID*               2425               01.9435666451E+017.9960989293E+00+
*       1.2529019746E+01               0
GRID*               2426               02.5980977650E+014.9898018919E+00+
*       1.2531519686E+01               0
GRID*               2427               02.6283007494E+013.0375204383E-01+
*       2.4273198310E+01               0
GRID*               2428               02.6122055212E+01-3.981471988E+00+
*       2.3419670694E+01               0
GRID*               2429               02.1982331324E+01-6.612787028E-01+
*       2.1026202897E+01               0
GRID*               2430               03.0605853272E+014.0161434402E-01+
*       2.1483665637E+01               0
GRID*               2431               02.6305177102E+01-5.634164027E-01+
*       1.8236670224E+01               0
GRID*               2432               02.2401351810E+018.0405331121E+00+
*       2.5939865256E+01               0
GRID*               2433               02.0078704242E+018.5466169026E+00+
*       2.2390809669E+01               0
GRID*               2434               02.0336772446E+011.2963204686E+01+
*       2.6450944413E+01               0
GRID*               2435               02.5510242307E+016.8306530905E+00+
*       2.4273198272E+01               0
GRID*               2436               02.3445662943E+011.1753324664E+01+
*       2.4784277428E+01               0
GRID*               2437               0-4.239457098E+01-6.357362103E+01+
*       5.3384029388E+00               0
GRID*               2438               0-3.761791087E+01-6.366105177E+01+
*       4.6673067984E+00               0
GRID*               2439               0-3.160150043E+01-5.458963110E+01+
*       3.3333162869E+00               0
GRID*               2440               0-2.882936311E+01-5.573765053E+01+
*       3.3333162998E+00               0
GRID*               2441               0-3.194040355E+01-5.586136352E+01+
*       5.6505220040E+00               0
GRID*               2442               0-3.128176899E+01-5.916717171E+01+
*       2.3172057170E+00               0
GRID*               2443               0-3.350260230E+01-5.992158405E+01+
*       6.9845125155E+00               0
GRID*               2444               0-4.103304033E+01-5.068554122E+01+
*       3.1880576005E+00               0
GRID*               2445               0-4.209205960E+01-5.373822313E+01+
*       8.5264605393E+00               0
GRID*               2446               0-3.748085800E+015.8905930305E+01+
*       4.6764893465E+00               0
GRID*               2447               0-3.445995165E+01-6.351918976E+01+
*       9.6085885385E+00               0
GRID*               2448               0-3.293874640E+01-6.595489544E+01+
*       4.9412817401E+00               0
GRID*               2449               0-3.386332725E+01-6.183996965E+01+
*       4.6673067984E+00               0
GRID*               2450               0-3.257802146E+01-6.403650984E+01+
*       7.2584874571E+00               0
GRID*               2451               0-3.198139706E+01-6.235728973E+01+
*       2.3172057170E+00               0
GRID*               2452               0-1.189598605E+01-4.664686562E+01+
*       1.6137351587E+01               0
GRID*               2453               0-9.099731553E+00-5.039824347E+01+
*       1.4840491210E+01               0
GRID*               2454               0-1.496811156E+01-4.972796920E+01+
*       1.6137351587E+01               0
GRID*               2455               0-3.455767494E+01-5.996765223E+01+
*       2.3172057170E+00               0
GRID*               2456               0-3.487740637E+01-5.539011162E+01+
*       3.3333162869E+00               0
GRID*               2457               0-1.519190048E+01-4.475884013E+01+
*       9.9698998140E+00               0
GRID*               2458               0-1.860176355E+01-4.305586798E+01+
*       7.1658645143E+00               0
GRID*               2459               0-1.933000157E+01-4.568194282E+01+
*       9.4706678736E+00               0
GRID*               2460               0-1.932973430E+01-4.568229139E+01+
*       1.2804035289E+01               0
GRID*               2461               0-1.860149628E+01-4.305621655E+01+
*       1.0499231930E+01               0
GRID*               2462               0-6.455289127E+00-4.589733528E+01+
*       1.5133220726E+01               0
GRID*               2463               0-7.688250185E+00-4.226342578E+01+
*       1.5133220726E+01               0
GRID*               2464               0-9.751203558E+00-4.400930979E+01+
*       8.9657689536E+00               0
GRID*               2465               0-1.116774803E+01-4.402079078E+01+
*       1.3832548227E+01               0
GRID*               2466               0-1.568480632E+01-4.277288153E+01+
*       1.3832548227E+01               0
GRID*               2467               0-7.683187083E+00-5.038676248E+01+
*       9.9737119364E+00               0
GRID*               2468               0-1.641304434E+01-4.539895637E+01+
*       1.6137351587E+01               0
GRID*               2469               0-1.982264014E+01-4.369633278E+01+
*       1.6666683702E+01               0
GRID*               2470               0-1.943133622E+01-4.667024781E+01+
*       1.6666666667E+01               0
GRID*               2471               08.3111748172E+01-3.102055598E+00+
*       5.0000000000E+00               0
GRID*               2472               08.2826567115E+01-8.089223825E+00+
*       5.0000072328E+00               0
GRID*               2473               0-2.621904140E+01-2.699304315E+00+
*       -5.946905107E+00               0
GRID*               2474               0-2.961164905E+01-1.905053316E+00+
*       -1.718282452E+00               0
GRID*               2475               0-2.328803601E+01-5.344093515E+00+
*       -7.613571853E+00               0
GRID*               2476               0-2.552745748E+01-6.079331621E+00+
*       -5.946905107E+00               0
GRID*               2477               0-2.089354952E+01-3.358611164E+00+
*       -7.613571853E+00               0
GRID*               2478               0-1.748537280E+011.2854535661E+00+
*       3.8786154990E+00               0
GRID*               2479               0-1.691453817E+014.1552202956E+00+
*       1.0215053366E+00               0
GRID*               2480               0-4.336680025E+01-2.574840711E+01+
*       5.8917670433E+00               0
GRID*               2481               0-4.521210427E+01-2.140533040E+01+
*       5.0233145530E+00               0
GRID*               2482               0-3.895203541E+01-1.859192808E+01+
*       1.5023314553E+01               0
GRID*               2483               0-3.948007964E+01-1.425010409E+01+
*       1.6187771068E+01               0
GRID*               2484               0-3.536131489E+01-1.126458815E+01+
*       9.7779933578E+00               0
GRID*               2485               0-3.110124704E+01-1.501466866E+01+
*       3.5902222901E+00               0
GRID*               2486               0-4.026996117E+01-1.090398256E+01+
*       6.1877710678E+00               0
GRID*               2487               0-3.281419445E+01-1.080538818E+01+
*       3.5902222901E+00               0
GRID*               2488               0-4.285537072E+01-1.385059532E+01+
*       6.1877710678E+00               0
GRID*               2489               0-7.702382133E+01-7.401297316E+00+
*       1.4747966395E+01               0
GRID*               2490               0-7.639782455E+01-1.139203628E+01+
*       1.5217769363E+01               0
GRID*               2491               0-7.274587919E+01-8.538296109E+00+
*       4.7479663947E+00               0
GRID*               2492               0-7.211988241E+01-1.252903507E+01+
*       5.2177693626E+00               0
GRID*               2493               0-7.628982968E+01-1.130220796E+01+
*       5.2177693626E+00               0
GRID*               2494               0-7.691582646E+01-7.311468995E+00+
*       4.7479663947E+00               0
GRID*               2495               0-6.886985492E+01-9.206104066E+00+
*       3.2372701106E+00               0
GRID*               2496               0-6.740340741E+01-1.333379754E+01+
*       3.2372701106E+00               0
GRID*               2497               0-8.016935110E+01-1.450778533E+01+
*       1.0217754291E+01               0
GRID*               2498               0-8.079534789E+01-1.051704637E+01+
*       9.7479513226E+00               0
GRID*               2499               0-8.233911316E+01-1.171404907E+01+
*       4.9999849279E+00               0
GRID*               2500               0-8.244710802E+01-1.180387739E+01+
*       1.4999984928E+01               0
GRID*               2501               0-7.547314369E+01-1.560264513E+01+
*       1.5217769363E+01               0
GRID*               2502               0-8.152242717E+01-1.601448625E+01+
*       1.4999984928E+01               0
GRID*               2503               0-8.039104818E+01-2.088003308E+01+
*       1.4999964799E+01               0
GRID*               2504               01.4958864200E+018.9637666336E+00+
*       7.4477443582E+00               0
GRID*               2505               01.6380385883E+014.6045094737E+00+
*       3.8308947156E+00               0
GRID*               2506               01.8616146323E+019.1740978452E+00+
*       8.2575489694E+00               0
GRID*               2507               01.7515698015E+015.9496026431E+00+
*       7.9525695945E+00               0
GRID*               2508               01.8086490069E+013.0799669273E+00+
*       7.9526156743E+00               0
GRID*               2509               01.6951177937E+011.7348737579E+00+
*       3.8309407954E+00               0
GRID*               2510               02.0061836583E+011.4523474281E+01+
*       5.3895468444E+00               0
GRID*               2511               02.3981684286E+011.1532749154E+01+
*       1.2570234144E+01               0
GRID*               2512               02.1424850470E+011.4546913145E+01+
*       1.2065408908E+01               0
GRID*               2513               03.4396240246E+01-7.282837745E+00+
*       1.7736939641E+00               0
GRID*               2514               01.7918606002E+01-4.153829245E+00+
*       3.5337128803E+00               0
GRID*               2515               02.2244370599E+011.3368914229E+01+
*       1.6336879685E+01               0
GRID*               2516               02.8789681798E+011.0362617191E+01+
*       1.6339379624E+01               0
GRID*               2517               02.9254994272E+011.7310540934E+00+
*       -1.995189437E+00               0
GRID*               2518               07.1822597038E+011.4780800631E+01+
*       5.2038213524E+00               0
GRID*               2519               07.5447991571E+011.8197741636E+01+
*       5.2038213524E+00               0
GRID*               2520               07.2534359172E+012.2960215114E+01+
*       5.0826699979E+00               0
GRID*               2521               0-5.608517114E+01-4.044456896E+01+
*       1.4626854335E+01               0
GRID*               2522               0-5.494307463E+01-3.776877157E+01+
*       9.9109456877E+00               0
GRID*               2523               0-5.360284283E+01-3.671001906E+01+
*       1.5053296755E+01               0
GRID*               2524               0-3.895477320E+01-4.082564247E+01+
*       1.5088627445E+01               0
GRID*               2525               0-4.148029891E+01-4.327378291E+01+
*       1.5088627445E+01               0
GRID*               2526               0-3.786656209E+01-4.392689398E+01+
*       1.1755294111E+01               0
GRID*               2527               0-3.413148872E+01-4.223404479E+01+
*       1.6666666667E+01               0
GRID*               2528               0-3.665701442E+01-4.468218523E+01+
*       1.6666666667E+01               0
GRID*               2529               0-4.201388328E+01-4.001509084E+01+
*       1.5088627445E+01               0
GRID*               2530               0-4.462862698E+01-3.683222693E+01+
*       1.5053296755E+01               0
GRID*               2531               0-4.572116527E+01-4.123262033E+01+
*       1.5088627445E+01               0
GRID*               2532               0-4.833590897E+01-3.804975642E+01+
*       1.5053296755E+01               0
GRID*               2533               0-4.472452206E+01-4.688097033E+01+
*       1.5088627445E+01               0
GRID*               2534               0-3.975850887E+01-4.613805897E+01+
*       1.3188057600E+01               0
GRID*               2535               01.0638686503E+012.3950668570E+01+
*       4.1931008491E+00               0
GRID*               2536               01.4162869532E+012.6350235172E+01+
*       -9.033098851E-01               0
GRID*               2537               07.1316692131E+002.5893170238E+01+
*       5.9966576758E+00               0
GRID*               2538               01.2212622054E+012.7735555632E+01+
*       6.6636035643E+00               0
GRID*               2539               01.0655852242E+012.8292736840E+01+
*       9.0024694165E-01               0
GRID*               2540               01.2767681441E+013.1842224713E+01+
*       2.4300233688E+00               0
GRID*               2541               01.8280489032E+012.9653000800E+01+
*       7.6129875558E+00               0
GRID*               2542               01.5328531128E+013.5702171549E+01+
*       5.1829641871E+00               0
GRID*               2543               09.2606641506E+003.3784726381E+01+
*       4.2335801955E+00               0
GRID*               2544               01.7095667113E+012.4533976976E+01+
*       -9.033098851E-01               0
GRID*               2545               01.5315737089E+012.0836461851E+01+
*       -1.946804903E+00               0
GRID*               2546               01.3939709320E+012.2095538840E+01+
*       3.8165517198E+00               0
GRID*               2547               01.6557364079E+012.4788002249E+01+
*       1.0501610477E+01               0
GRID*               2548               01.2638596707E+014.1479723116E+01+
*       3.5333496848E+00               0
GRID*               2549               01.8360692423E+011.7890761082E+01+
*       8.2325203719E-01               0
GRID*               2550               01.9892000001E+012.1325870345E+01+
*       3.9432083466E+00               0
GRID*               2551               01.5889475926E+011.8990657900E+01+
*       6.3063852353E+00               0
GRID*               2552               01.9736720192E+011.6631684094E+01+
*       -4.940104585E+00               0
GRID*               2553               02.1268027770E+012.0066793357E+01+
*       -1.820148276E+00               0
GRID*               2554               04.6551012918E+013.5439125566E+01+
*       1.5195889633E+01               0
GRID*               2555               04.5070368998E+014.0530625719E+01+
*       1.5086639742E+01               0
GRID*               2556               04.2183964138E+013.7644442726E+01+
*       1.3658207178E+01               0
GRID*               2557               05.2018030776E+013.3502846015E+01+
*       1.1636417697E+01               0
GRID*               2558               04.8595498256E+013.1271716401E+01+
*       1.5195889633E+01               0
GRID*               2559               05.4330234100E+013.3287252908E+01+
*       1.6440528064E+01               0
GRID*               2560               05.1035555864E+013.4829151169E+01+
*       1.5195889633E+01               0
GRID*               2561               04.7617556054E+013.2083700240E+01+
*       5.1958896332E+00               0
GRID*               2562               04.6143106562E+013.0410020318E+01+
*       9.3947246278E+00               0
GRID*               2563               05.2286153604E+013.1062671782E+01+
*       5.1958896332E+00               0
GRID*               2564               0-6.316514679E+011.5011824341E+01+
*       1.5414081753E+01               0
GRID*               2565               0-6.635004664E+011.9550174052E+01+
*       1.0490469193E+01               0
GRID*               2566               0-6.413780109E+011.7095486996E+01+
*       5.4140817535E+00               0
GRID*               2567               0-6.165660413E+011.3442684667E+01+
*       1.0498719806E+01               0
GRID*               2568               0-6.260107938E+011.2776826124E+01+
*       5.4140817535E+00               0
GRID*               2569               0-5.819129088E+011.4119041707E+01+
*       5.0846380529E+00               0
GRID*               2570               0-6.361515047E+011.0721837440E+01+
*       1.5414081753E+01               0
GRID*               2571               0-5.920536197E+011.2064053023E+01+
*       1.5084638053E+01               0
GRID*               2572               0-6.667534600E+016.6389521513E+00+
*       9.6564396869E+00               0
GRID*               2573               0-6.480259960E+019.3841387686E+00+
*       5.4140817535E+00               0
GRID*               2574               0-6.541155297E+013.9226218358E+00+
*       4.2423579334E+00               0
GRID*               2575               0-6.863389273E+018.2764788344E+00+
*       5.4140817535E+00               0
GRID*               2576               0-6.924284610E+012.8149619016E+00+
*       4.2423579334E+00               0
GRID*               2577               0-6.442145510E+012.4545191963E+01+
*       5.0763874394E+00               0
GRID*               2578               03.4755721374E+015.2520913272E+01+
*       1.6666666666E+01               0
GRID*               2579               03.1474572756E+015.4767848354E+01+
*       1.6666666666E+01               0
GRID*               2580               03.8345201870E+015.3832842135E+01+
*       1.6551286312E+01               0
GRID*               2581               03.5331325988E+015.3186761458E+01+
*       1.3217952979E+01               0
GRID*               2582               04.3377947318E+014.4872974781E+01+
*       1.5086639742E+01               0
GRID*               2583               03.9957318210E+014.9508447650E+01+
*       1.6551286312E+01               0
GRID*               2584               04.1075014356E+015.6466681927E+01+
*       1.6551286312E+01               0
GRID*               2585               04.3505935801E+015.9696154051E+01+
*       1.6296153246E+01               0
GRID*               2586               04.1351727929E+015.7728162445E+01+
*       1.2847439559E+01               0
GRID*               2587               04.0560354621E+016.1336270332E+01+
*       1.6296153246E+01               0
GRID*               2588               04.4982433390E+015.6339570785E+01+
*       1.6296153246E+01               0
GRID*               2589               02.0336476284E+01-3.977002583E+01+
*       6.1349346245E+00               0
GRID*               2590               02.0229969472E+01-3.644696437E+01+
*       6.1349346245E+00               0
GRID*               2591               02.1371164832E+01-4.293359977E+01+
*       3.3333333333E+00               0
GRID*               2592               02.2789993786E+01-4.079387924E+01+
*       9.4682679581E+00               0
GRID*               2593               02.3491402190E+01-4.081256971E+01+
*       3.3333333337E+00               0
GRID*               2594               0-2.138767046E+01-3.419969976E+01+
*       5.1687431190E+00               0
GRID*               2595               0-1.942953691E+01-3.852112011E+01+
*       5.1687431190E+00               0
GRID*               2596               0-2.237944838E+01-3.756894495E+01+
*       5.1687431190E+00               0
GRID*               2597               0-2.051755131E+01-2.715574660E+01+
*       6.5734096306E+00               0
GRID*               2598               0-2.395339340E+01-3.029807803E+01+
*       4.0134241726E+00               0
GRID*               2599               0-2.236866970E+01-2.642791421E+01+
*       1.5083870962E+00               0
GRID*               2600               0-1.874646218E+01-2.910750642E+01+
*       2.5599854580E+00               0
GRID*               2601               0-1.071409587E+01-4.715816020E+01+
*       3.8325482273E+00               0
GRID*               2602               0-6.001636971E+00-4.903470470E+01+
*       5.1332207263E+00               0
GRID*               2603               0-1.239564598E+01-4.851021798E+01+
*       8.6730394374E+00               0
GRID*               2604               0-8.646079398E+00-5.353561289E+01+
*       4.8404912101E+00               0
GRID*               2605               0-9.907851285E+00-4.045363128E+01+
*       3.8325482273E+00               0
GRID*               2606               0-5.195392384E+00-4.233017578E+01+
*       5.1332207263E+00               0
GRID*               2607               0-1.243970869E+01-4.298603917E+01+
*       3.8325482273E+00               0
GRID*               2608               0-7.727249790E+00-4.486258367E+01+
*       5.1332207263E+00               0
GRID*               2609               0-1.636484981E+01-4.151272192E+01+
*       3.8325482273E+00               0
GRID*               2610               0-1.531988278E+01-4.575703357E+01+
*       3.8325482273E+00               0
GRID*               2611               0-2.858362044E+01-7.084603648E+01+
*       9.3534503765E+00               0
GRID*               2612               0-2.543836083E+01-7.084150954E+01+
*       4.4121686364E+00               0
GRID*               2613               0-3.039011119E+01-6.762958861E+01+
*       4.9412817401E+00               0
GRID*               2614               0-2.804089028E+01-6.821599114E+01+
*       1.1761127484E+01               0
GRID*               2615               0-2.489563067E+01-6.821146419E+01+
*       6.8198457442E+00               0
GRID*               2616               0-3.718491015E+01-7.251070284E+01+
*       9.9413471132E+00               0
GRID*               2617               0-4.077138717E+01-7.243322675E+01+
*       1.5000065373E+01               0
GRID*               2618               0-3.712184781E+01-6.755663947E+01+
*       1.4941281740E+01               0
GRID*               2619               0-4.146258557E+01-6.993108773E+01+
*       9.9413465194E+00               0
GRID*               2620               0-4.504906258E+01-6.985361165E+01+
*       1.5000064779E+01               0
GRID*               2621               0-2.943276185E+01-6.403198290E+01+
*       2.3172057170E+00               0
GRID*               2622               0-2.822225349E+01-7.285897059E+01+
*       1.4412168636E+01               0
GRID*               2623               0-3.317400384E+01-6.964704966E+01+
*       1.4941281740E+01               0
GRID*               2624               0-3.264101942E+01-7.458590173E+01+
*       9.9413324338E+00               0
GRID*               2625               0-2.768926906E+01-7.779782266E+01+
*       9.4122193301E+00               0
GRID*               2626               0-3.227965247E+01-7.659883584E+01+
*       1.5000050694E+01               0
GRID*               2627               0-3.314705632E+01-6.990067326E+01+
*       4.9412817401E+00               0
GRID*               2628               0-2.819530597E+01-7.311259419E+01+
*       4.4121686364E+00               0
GRID*               2629               0-3.225270495E+01-7.685245944E+01+
*       5.0000506937E+00               0
GRID*               2630               0-4.361885818E+01-8.613426907E+00+
*       1.6187771068E+01               0
GRID*               2631               0-4.031868035E+01-8.609562326E+00+
*       1.2086584822E+01               0
GRID*               2632               0-3.568439086E+01-1.136866315E+01+
*       1.3805214764E+01               0
GRID*               2633               0-3.318598961E+01-8.615042952E+00+
*       1.3516257450E+01               0
GRID*               2634               0-3.840106942E+01-7.411541737E+00+
*       1.5898813754E+01               0
GRID*               2635               0-4.089947068E+01-1.016516194E+01+
*       1.6187771068E+01               0
GRID*               2636               0-3.376677993E+01-1.017064256E+01+
*       1.7617443696E+01               0
GRID*               2637               0-4.168763230E+01-6.443807716E+00+
*       5.8988137542E+00               0
GRID*               2638               0-3.846748875E+01-3.660197412E+00+
*       5.8988137542E+00               0
GRID*               2639               0-3.777155991E+01-8.150362357E+00+
*       5.8988137542E+00               0
GRID*               2640               0-4.428571034E+01-1.880276539E+00+
*       3.3333333333E+00               0
GRID*               2641               0-3.203725877E+00-1.677549433E+01+
*       1.1258343096E+01               0
GRID*               2642               0-7.969504855E+00-1.570950138E+01+
*       1.1162435781E+01               0
GRID*               2643               0-1.615478488E+00-1.970589347E+01+
*       1.7455657342E+01               0
GRID*               2644               01.3725612841E+00-1.696126318E+01+
*       1.6156662590E+01               0
GRID*               2645               0-2.988826460E+00-1.774449108E+01+
*       1.4156063468E+01               0
GRID*               2646               0-2.988591487E+00-1.774450585E+01+
*       1.7013228127E+01               0
GRID*               2647               0-5.795868402E+00-2.600034169E+01+
*       2.4877606631E+01               0
GRID*               2648               0-1.687696060E+01-2.504972984E+01+
*       1.0937019766E+01               0
GRID*               2649               0-9.260730291E+00-1.935586492E+01+
*       1.9777619789E+01               0
GRID*               2650               0-1.055278527E+01-1.867257717E+01+
*       1.5430925466E+01               0
GRID*               2651               0-1.043426138E+01-1.535715211E+01+
*       1.4131988288E+01               0
GRID*               2652               0-5.858342342E+00-1.717369631E+01+
*       1.4156121043E+01               0
GRID*               2653               0-5.189435416E+01-2.337507933E+01+
*       1.4939708235E+01               0
GRID*               2654               0-4.957697690E+01-2.812544075E+01+
*       1.5891767043E+01               0
GRID*               2655               0-5.407404505E+01-2.767622992E+01+
*       1.4939708235E+01               0
GRID*               2656               0-4.232732650E+01-1.819241931E+01+
*       5.0233145530E+00               0
GRID*               2657               0-4.661874837E+01-1.635297058E+01+
*       5.1288520496E+00               0
GRID*               2658               0-5.084937628E+01-2.817414216E+01+
*       5.8917670433E+00               0
GRID*               2659               0-4.349622327E+01-3.017194574E+01+
*       1.2202147612E+01               0
GRID*               2660               0-4.270682258E+01-3.226488712E+01+
*       6.3103805687E+00               0
GRID*               2661               0-4.632912075E+01-2.893985032E+01+
*       5.8917670433E+00               0
GRID*               2662               0-4.066816501E+01-2.725322905E+01+
*       1.1624457328E+01               0
GRID*               2663               0-4.582065469E+01-2.713903143E+01+
*       1.5891767043E+01               0
GRID*               2664               0-4.219835651E+01-3.046406824E+01+
*       1.6310380569E+01               0
GRID*               2665               05.9315536074E+01-6.355727395E+00+
*       6.6047705876E+00               0
GRID*               2666               05.9315536074E+01-6.355727395E+00+
*       9.9381039209E+00               0
GRID*               2667               05.6935967171E+01-8.181909442E+00+
*       6.6047535540E+00               0
GRID*               2668               05.6935531684E+01-8.181966768E+00+
*       9.9381209644E+00               0
GRID*               2669               06.6272988204E+01-1.786317975E+01+
*       9.6222355157E+00               0
GRID*               2670               06.7194924238E+01-1.585314214E+01+
*       1.4704077526E+01               0
GRID*               2671               06.3185552505E+01-1.363527853E+01+
*       1.4704077526E+01               0
GRID*               2672               06.4546184516E+01-2.111830868E+01+
*       1.4918157990E+01               0
GRID*               2673               05.4466734537E+01-8.812731770E+00+
*       1.6666683710E+01               0
GRID*               2674               05.8621008889E+01-1.141949329E+01+
*       1.6666683710E+01               0
GRID*               2675               05.8635227991E+01-7.227373449E+00+
*       1.6666683710E+01               0
GRID*               2676               06.6788963057E+01-6.249305330E+00+
*       1.4704077526E+01               0
GRID*               2677               06.5490327201E+01-4.094837860E+00+
*       8.9075377456E+00               0
GRID*               2678               06.7366934066E+013.6006408920E-02+
*       1.4203460220E+01               0
GRID*               2679               07.1144719538E+01-2.890472983E+00+
*       1.5980530176E+01               0
GRID*               2680               06.9268112673E+01-7.021317252E+00+
*       1.0684607702E+01               0
GRID*               2681               06.9846083682E+01-7.360055126E-01+
*       1.0183990395E+01               0
GRID*               2682               06.7179353850E+01-1.109591532E+01+
*       1.4704077526E+01               0
GRID*               2683               07.1535110331E+01-7.737082971E+00+
*       1.5980530176E+01               0
GRID*               2684               06.0347812576E+01-8.164364361E+00+
*       1.1370761236E+01               0
GRID*               2685               06.3199771607E+01-9.443158686E+00+
*       1.4704077526E+01               0
GRID*               2686               03.1632740402E+013.5772214467E+01+
*       1.4553417643E+01               0
GRID*               2687               02.8753118652E+013.8032764951E+01+
*       1.1220084310E+01               0
GRID*               2688               02.8286709238E+013.9328696999E+01+
*       1.6666666666E+01               0
GRID*               2689               03.1934702559E+013.9575872257E+01+
*       1.6666666666E+01               0
GRID*               2690               03.2383912748E+013.2694219773E+01+
*       4.5534176433E+00               0
GRID*               2691               02.9252329118E+013.5305485169E+01+
*       4.5534176433E+00               0
GRID*               2692               03.1915595924E+013.7302921797E+01+
*       4.5534176433E+00               0
GRID*               2693               02.4948209764E+013.7674685189E+01+
*       1.1849630853E+01               0
GRID*               2694               02.5388245671E+014.0104466042E+01+
*       1.6666666666E+01               0
GRID*               2695               0-1.325186630E+01-5.213448626E+01+
*       4.8404912101E+00               0
GRID*               2696               0-2.768912547E+01-7.779788324E+01+
*       1.4412168636E+01               0
GRID*               2697               0-1.382218758E+01-8.176635658E+01+
*       1.5000010912E+01               0
GRID*               2698               0-1.409706191E+01-8.152961190E+01+
*       5.0000109118E+00               0
GRID*               2699               0-2.767952332E+01-7.022892524E+01+
*       1.6819845744E+01               0
GRID*               2700               0-3.682354320E+01-7.452363694E+01+
*       1.5000065373E+01               0
GRID*               2701               0-3.679659568E+01-7.477726054E+01+
*       5.0000653731E+00               0
GRID*               2702               0-2.293833396E+01-7.934155729E+01+
*       4.4121686364E+00               0
GRID*               2703               0-6.778151789E+01-3.933370306E+00+
*       1.1271481833E+01               0
GRID*               2704               0-7.149603692E+01-6.782274247E+00+
*       7.9852365053E+00               0
GRID*               2705               0-6.745215600E+01-3.136323492E+00+
*       7.4796280441E+00               0
GRID*               2706               0-6.369007358E+01-5.551254219E+00+
*       6.5705863976E+00               0
GRID*               2707               0-6.352221694E+01-1.237495508E+00+
*       7.5756742204E+00               0
GRID*               2708               0-6.352248422E+01-1.237146938E+00+
*       1.0909041636E+01               0
GRID*               2709               0-6.369034086E+01-5.550905649E+00+
*       9.9039538131E+00               0
GRID*               2710               0-6.944271607E+01-1.075278307E+00+
*       4.2423579334E+00               0
GRID*               2711               0-7.321887985E+01-5.087546957E-01+
*       4.8942649209E+00               0
GRID*               2712               0-7.301900987E+013.3814855134E+00+
*       4.8942649209E+00               0
GRID*               2713               0-6.649670613E+01-3.661290766E+00+
*       3.2372701106E+00               0
GRID*               2714               0-6.632884950E+016.5246794531E-01+
*       4.2423579334E+00               0
GRID*               2715               0-6.256676708E+01-1.762462781E+00+
*       3.3333162870E+00               0
GRID*               2716               0-6.961057271E+01-5.389037018E+00+
*       3.2372701106E+00               0
GRID*               2717               0-1.691255753E+01-1.165819709E+01+
*       9.1311823144E+00               0
GRID*               2718               0-2.206657153E+01-1.084603065E+01+
*       9.8594769630E+00               0
GRID*               2719               0-1.836314350E+01-7.222891109E+00+
*       1.2157156628E+01               0
GRID*               2720               0-1.535753401E+01-6.008802806E+01+
*       1.4445196143E+01               0
GRID*               2721               01.6911848392E-01-7.692141490E+01+
*       1.5010944198E+01               0
GRID*               2722               06.3715488742E+00-7.721341723E+01+
*       1.4846802857E+01               0
GRID*               2723               0-1.936556952E+01-6.282539756E+01+
*       4.4451961426E+00               0
GRID*               2724               0-1.596122062E+01-5.920229725E+01+
*       4.4451961426E+00               0
GRID*               2725               0-2.745295625E+01-3.187987051E+01+
*       4.0134241726E+00               0
GRID*               2726               0-2.494517131E+01-3.366732322E+01+
*       4.0134241726E+00               0
GRID*               2727               0-2.945840075E+01-3.547472564E+01+
*       5.1330115921E+00               0
GRID*               2728               0-2.873278488E+01-3.854817768E+01+
*       3.3333162997E+00               0
GRID*               2729               02.7429286087E+015.6706651468E+01+
*       1.7935368692E+01               0
GRID*               2730               02.8576109691E+015.5543617701E+01+
*       1.6666666667E+01               0
GRID*               2731               02.7844502780E+015.9591736339E+01+
*       1.6358489195E+01               0
GRID*               2732               01.8994281946E+018.1188934864E+01+
*       1.5000019729E+01               0
GRID*               2733               01.4579090493E+018.1976746835E+01+
*       1.5000019729E+01               0
GRID*               2734               01.5217288724E+017.5856019188E+01+
*       1.4356348449E+01               0
GRID*               2735               01.0802097270E+017.6643831160E+01+
*       1.4356348449E+01               0
GRID*               2736               02.7034559555E+015.9494451647E+01+
*       6.3584891952E+00               0
GRID*               2737               02.4097028438E+016.0434713411E+01+
*       6.3584891952E+00               0
GRID*               2738               01.9280759205E+015.4735255402E+01+
*       4.5963707387E+00               0
GRID*               2739               01.7272127661E+015.9439784244E+01+
*       1.4596370739E+01               0
GRID*               2740               01.3116892252E+016.4576416606E+01+
*       1.4578087132E+01               0
GRID*               2741               0-6.673822558E+01-5.523462432E+00+
*       1.7029123899E+01               0
GRID*               2742               0-6.247919190E+01-2.827239064E+00+
*       1.6666683702E+01               0
GRID*               2743               0-6.624100705E+01-4.126569075E-01+
*       1.4242357933E+01               0
GRID*               2744               0-6.987671671E+01-6.680458825E+00+
*       1.7029123899E+01               0
GRID*               2745               01.8315620926E+013.2889056465E+00+
*       1.3143050757E+01               0
GRID*               2746               01.7515491695E+015.9501236859E+00+
*       1.0809764341E+01               0
GRID*               2747               01.8086490069E+013.0799669273E+00+
*       1.0809758531E+01               0
GRID*               2748               0-2.324267755E+01-6.353846129E+01+
*       4.4451961426E+00               0
GRID*               2749               0-2.275483293E+01-6.020322960E+01+
*       4.4451961426E+00               0
GRID*               2750               0-2.894491723E+01-6.069675121E+01+
*       2.3172057170E+00               0
GRID*               2751               01.4958657879E+018.9642876765E+00+
*       1.0304939104E+01               0
GRID*               2752               0-4.751892771E+01-3.149983638E+01+
*       1.0945063798E+01               0
GRID*               2753               0-4.672952701E+01-3.359277777E+01+
*       5.0532967549E+00               0
GRID*               2754               0-4.389662954E+01-3.482487319E+01+
*       1.1363677324E+01               0
GRID*               2755               0-5.201599586E+01-3.105062555E+01+
*       9.9930049901E+00               0
GRID*               2756               0-4.997738316E+01-3.277836821E+01+
*       1.5053296755E+01               0
GRID*               2757               0-5.124978254E+01-3.282706961E+01+
*       5.0532967549E+00               0
GRID*               2758               03.3801357164E+01-5.820157620E+01+
*       1.0203782242E+01               0
GRID*               2759               03.3453839411E+01-5.449078160E+01+
*       1.1621760559E+01               0
GRID*               2760               02.9402598222E+01-5.713716644E+01+
*       1.1915355016E+01               0
GRID*               2761               03.2117769188E+01-5.788963623E+01+
*       1.5248688349E+01               0
GRID*               2762               03.6169010378E+01-5.524325139E+01+
*       1.4955093893E+01               0
GRID*               2763               03.1770251435E+01-5.417884163E+01+
*       1.6666666666E+01               0
GRID*               2764               03.6330653631E+01-5.883315200E+01+
*       1.4955093893E+01               0
GRID*               2765               03.3453839406E+01-5.449078161E+01+
*       8.2884272260E+00               0
GRID*               2766               02.9402598216E+01-5.713716644E+01+
*       8.5820216826E+00               0
GRID*               2767               03.6242828517E+01-5.865651362E+01+
*       4.9550938928E+00               0
GRID*               2768               03.1964343003E+01-5.761520739E+01+
*       5.2486883494E+00               0
GRID*               2769               03.6015584193E+01-5.496882256E+01+
*       4.9550938928E+00               0
GRID*               2770               03.1616825245E+01-5.390441280E+01+
*       3.3333333332E+00               0
GRID*               2771               0-1.215076598E+01-1.903097832E+01+
*       -4.472133445E+00               0
GRID*               2772               0-1.040304257E+01-1.408340891E+01+
*       1.1162388436E+01               0
GRID*               2773               0-1.341724439E+01-1.056607692E+01+
*       1.2697799261E+01               0
GRID*               2774               0-1.321339308E+01-1.404339951E+01+
*       1.1003098521E+01               0
GRID*               2775               0-1.286779909E+01-1.373105964E+01+
*       1.4131940943E+01               0
GRID*               2776               0-1.567814960E+01-1.369105025E+01+
*       1.3972651028E+01               0
GRID*               2777               0-1.087379791E+01-1.370624849E+01+
*       4.0992479769E+00               0
GRID*               2778               0-1.040319272E+01-1.408324902E+01+
*       8.3052252704E+00               0
GRID*               2779               0-7.496833936E+00-2.865956200E+01+
*       -1.129323013E+00               0
GRID*               2780               02.1880959126E-01-8.323258032E+01+
*       5.0000005035E+00               0
GRID*               2781               05.2120809979E+00-8.308996718E+01+
*       4.9999957961E+00               0
GRID*               2782               08.2143423645E+01-1.821865340E+01+
*       5.0000247227E+00               0
GRID*               2783               07.1513521807E+011.7858948045E+00+
*       1.5980530176E+01               0
GRID*               2784               06.7735736335E+014.7123741961E+00+
*       1.4203460220E+01               0
GRID*               2785               07.4788322718E+015.1517899849E+00+
*       1.1184351528E+01               0
GRID*               2786               07.1010537245E+018.0782693765E+00+
*       9.4072815719E+00               0
GRID*               2787               06.7807336962E+01-6.185356512E+00+
*       4.7040775261E+00               0
GRID*               2788               06.4191192343E+01-7.978909758E+00+
*       4.7040775261E+00               0
GRID*               2789               06.2727816966E+01-6.338124988E+00+
*       8.0374108594E+00               0
GRID*               2790               06.5622797736E+01-2.143331902E+00+
*       3.3333333333E+00               0
GRID*               2791               06.2006653117E+01-3.936885148E+00+
*       3.3333333333E+00               0
GRID*               2792               07.6173682749E+01-4.933298050E+00+
*       5.9805301755E+00               0
GRID*               2793               08.0561934577E+01-1.831242452E+00+
*       1.0980530176E+01               0
GRID*               2794               07.2259986384E+012.8780857791E+00+
*       4.2034602195E+00               0
GRID*               2795               07.6037771857E+01-4.839361251E-02+
*       5.9805301755E+00               0
GRID*               2796               07.2163093443E+01-2.826524165E+00+
*       5.9805301755E+00               0
GRID*               2797               06.8385307970E+019.9955226933E-02+
*       4.2034602195E+00               0
GRID*               2798               06.3305787975E+01-5.281324950E-02+
*       7.5367935529E+00               0
GRID*               2799               07.5811650933E+01-4.855883393E+00+
*       1.5980530176E+01               0
GRID*               2800               01.6077235539E+01-5.140699797E+01+
*       5.2020964356E+00               0
GRID*               2801               01.8392782337E+01-4.921820099E+01+
*       8.5354297690E+00               0
GRID*               2802               0-1.081183083E+013.7403783026E+01+
*       1.2855607341E+01               0
GRID*               2803               0-7.984067694E+003.4544296782E+01+
*       8.0984830540E+00               0
GRID*               2804               0-2.677881353E+012.1788342451E+01+
*       1.8274124627E+01               0
GRID*               2805               0-3.534385421E+013.0973056882E+01+
*       3.9327259618E+00               0
GRID*               2806               0-3.587071488E+013.5210397430E+01+
*       3.9327259618E+00               0
GRID*               2807               0-4.159957890E+013.3150750611E+01+
*       3.7363714743E+00               0
GRID*               2808               0-3.835522507E+013.4634434712E+01+
*       7.6690974362E+00               0
GRID*               2809               0-2.548885471E+013.4453241114E+01+
*       1.4646723320E+01               0
GRID*               2810               0-1.515055697E+012.6128530546E+01+
*       9.9912484477E+00               0
GRID*               2811               0-4.606512854E+01-4.593445371E+01+
*       7.8149119351E+00               0
GRID*               2812               0-4.778691858E+01-4.307017765E+01+
*       9.7154817794E+00               0
GRID*               2813               0-4.345665741E+01-4.695597301E+01+
*       3.1880576005E+00               0
GRID*               2814               0-5.334240295E+01-1.794448860E+01+
*       1.5128852050E+01               0
GRID*               2815               0-5.900280907E+01-1.915339580E+01+
*       1.5097258413E+01               0
GRID*               2816               0-5.622681337E+01-2.273476572E+01+
*       1.4939708235E+01               0
GRID*               2817               0-6.677741669E+01-5.148901606E+01+
*       1.4999938980E+01               0
GRID*               2818               0-4.233143551E+01-3.331179160E+01+
*       1.6310380569E+01               0
GRID*               2819               0-4.635413995E+01-3.463968225E+01+
*       1.5053296755E+01               0
GRID*               2820               0-4.060592255E+01-3.550433628E+01+
*       1.6310380569E+01               0
GRID*               2821               0-4.595373369E+01-2.998675480E+01+
*       1.5891767043E+01               0
GRID*               2822               0-3.836855107E+014.9136005978E+01+
*       1.1143665215E+01               0
GRID*               2823               0-3.766342074E+015.3589663351E+01+
*       1.0825505693E+01               0
GRID*               2824               0-3.985031955E+015.4583669756E+01+
*       1.4158839026E+01               0
GRID*               2825               0-4.055544988E+015.0130012383E+01+
*       1.4476998549E+01               0
GRID*               2826               0-1.552128315E+011.4207687174E+01+
*       2.7257582419E+01               0
GRID*               2827               0-1.721981660E+011.6954714097E+01+
*       2.7257582419E+01               0
GRID*               2828               0-1.844641395E+011.3319869683E+01+
*       2.4706839753E+01               0
GRID*               2829               0-1.483319657E+011.2485124392E+01+
*       1.7243391186E+01               0
GRID*               2830               04.6616762616E+01-4.701387424E+01+
*       1.0090593193E+01               0
GRID*               2831               04.9075307907E+01-4.686806089E+01+
*       5.1464423144E+00               0
GRID*               2832               04.0663462920E+01-5.291657374E+01+
*       9.8992447714E+00               0
GRID*               2833               05.1236158331E+01-5.088239695E+01+
*       4.3957276258E+00               0
GRID*               2834               04.4228442370E+01-4.731704943E+01+
*       1.4944150879E+01               0
GRID*               2835               03.9024490805E+01-5.269554581E+01+
*       1.4955093893E+01               0
GRID*               2836               0-7.063416191E+011.5233422683E+01+
*       4.4854561368E+00               0
GRID*               2837               0-7.442786809E+011.7657672382E+01+
*       1.4485456137E+01               0
GRID*               2838               0-7.818214589E+013.0156817138E+01+
*       1.5000055281E+01               0
GRID*               2839               04.9124960535E+01-1.133358244E+01+
*       1.4002174523E+01               0
GRID*               2840               05.5618997261E+01-1.104611941E+01+
*       1.3271437254E+01               0
GRID*               2841               05.1593757682E+01-1.070281744E+01+
*       7.2736117776E+00               0
GRID*               2842               05.0441494959E+01-8.469429794E+00+
*       1.0668858234E+01               0
GRID*               2843               04.3340278118E+01-5.476012963E+00+
*       5.6450120621E+00               0
GRID*               2844               04.5184322219E+01-9.376292329E+00+
*       4.0021745234E+00               0
GRID*               2845               05.5082638526E+01-1.052839162E+01+
*       3.2714372542E+00               0
GRID*               2846               04.8588601801E+01-1.081585464E+01+
*       4.0021745234E+00               0
GRID*               2847               05.0441930445E+01-8.469372469E+00+
*       7.3354908232E+00               0
GRID*               2848               05.3930811289E+01-8.294946646E+00+
*       3.3333162998E+00               0
GRID*               2849               04.3281587423E+01-5.610324423E+00+
*       1.5645012062E+01               0
GRID*               2850               04.5125631524E+01-9.510603789E+00+
*       1.4002174523E+01               0
GRID*               2851               04.5825481537E+01-3.420725478E+00+
*       1.2311695764E+01               0
GRID*               2852               04.7695436204E+01-5.841328168E+00+
*       1.6666683702E+01               0
GRID*               2853               04.7669525638E+01-7.321004844E+00+
*       1.0668858226E+01               0
GRID*               2854               0-3.754681246E+01-3.631488791E+01+
*       1.6310380569E+01               0
GRID*               2855               0-5.669864435E+01-6.113098404E+01+
*       1.5000037361E+01               0
GRID*               2856               05.0990322152E+019.9898111895E+00+
*       8.2854942006E+00               0
GRID*               2857               04.8610753334E+018.1636291533E+00+
*       8.2855112341E+00               0
GRID*               2858               01.2552216484E+013.2805782621E+01+
*       1.9087407794E+01               0
GRID*               2859               07.9793040558E+003.9643334729E+01+
*       3.8213017031E+00               0
GRID*               2860               03.1409779358E+01-7.794974037E+01+
*       4.9999406971E+00               0
GRID*               2861               03.2742052794E+01-6.963461948E+01+
*       4.9798722927E+00               0
GRID*               2862               03.8447580720E+01-5.148675365E+01+
*       4.9550938928E+00               0
GRID*               2863               03.5574076735E+01-5.236975114E+01+
*       8.2884272261E+00               0
GRID*               2864               03.3737062573E+01-5.178338233E+01+
*       3.3333333333E+00               0
GRID*               2865               03.5574076735E+01-5.236975114E+01+
*       1.1621760559E+01               0
GRID*               2866               03.3890488758E+01-5.205781117E+01+
*       1.6666666667E+01               0
GRID*               2867               01.8571641803E+011.8119726644E+00+
*       1.7368436685E+01               0
GRID*               2868               01.8571641803E+011.8119726644E+00+
*       2.0225579542E+01               0
GRID*               2869               01.8410689521E+01-2.473251367E+00+
*       1.9372051926E+01               0
GRID*               2870               01.8410689521E+01-2.473251367E+00+
*       1.6514909069E+01               0
GRID*               2871               0-3.389065396E+015.2511047802E+01+
*       3.3333333333E+00               0
GRID*               2872               01.8410689521E+01-2.473251367E+00+
*       2.2229194784E+01               0
GRID*               2873               01.8571641803E+011.8119726644E+00+
*       2.3082722399E+01               0
GRID*               2874               01.6309651039E+01-4.539878677E+00+
*       1.6035728075E+01               0
GRID*               2875               01.5738858985E+01-7.409514392E+00+
*       1.3178631298E+01               0
GRID*               2876               01.5738827359E+01-7.409594261E+00+
*       1.6035766207E+01               0
GRID*               2877               02.3699484166E+01-4.371672106E+00+
*       2.5086337641E+01               0
GRID*               2878               02.2992556194E+01-7.076036743E+00+
*       2.5086337641E+01               0
GRID*               2879               01.7839767486E+01-5.343215338E+00+
*       2.2229208184E+01               0
GRID*               2880               01.7839865841E+01-5.342966952E+00+
*       1.9372090058E+01               0
GRID*               2881               02.2789993792E+01-4.079387924E+01+
*       1.2801601291E+01               0
GRID*               2882               02.4352011079E+01-3.736527216E+01+
*       1.6666666667E+01               0
GRID*               2883               02.1197085167E+01-3.632272828E+01+
*       1.6134934624E+01               0
GRID*               2884               01.9856566601E+01-4.014891299E+01+
*       1.6134934624E+01               0
GRID*               2885               02.3011492513E+01-4.119145687E+01+
*       1.6666666667E+01               0
GRID*               2886               02.2859055633E+01-3.347939636E+01+
*       4.8964349394E+00               0
GRID*               2887               02.6741790121E+01-3.494702703E+01+
*       4.8964349394E+00               0
GRID*               2888               02.2965562445E+01-3.680245782E+01+
*       4.8964349394E+00               0
GRID*               2889               02.8948802269E+01-3.361267407E+01+
*       9.4679882990E+00               0
GRID*               2890               02.6400179876E+01-3.063124858E+01+
*       4.8964349394E+00               0
GRID*               2891               03.0455741942E+01-3.042772331E+01+
*       4.5715533596E+00               0
GRID*               2892               03.0797352187E+01-3.474350176E+01+
*       4.5715533596E+00               0
GRID*               2893               0-4.163458498E+00-8.294701290E+01+
*       1.5000000504E+01               0
GRID*               2894               06.1015232381E+01-5.401134076E+00+
*       1.6666666667E+01               0
GRID*               2895               01.7413893441E+01-3.320690386E+01+
*       8.7302768151E+00               0
GRID*               2896               01.8008795033E+01-2.990253287E+01+
*       2.5953421906E+00               0
GRID*               2897               01.3906369899E+01-3.185717314E+01+
*       2.5953421906E+00               0
GRID*               2898               01.8757950745E+01-3.154187350E+01+
*       1.5102166882E+01               0
GRID*               2899               01.6536776307E+01-2.499744200E+01+
*       1.1562574448E+01               0
GRID*               2900               02.2264154041E+01-3.678376735E+01+
*       1.1031369564E+01               0
GRID*               2901               02.0042979602E+01-3.023933585E+01+
*       7.4917771300E+00               0
GRID*               2902               0-2.010674275E+015.0695039800E+01+
*       3.3333162869E+00               0
GRID*               2903               0-1.971517126E+014.7720776521E+01+
*       3.3333333333E+00               0
GRID*               2904               0-1.047944158E+01-4.663538463E+01+
*       1.1270572313E+01               0
GRID*               2905               0-3.361274421E+00-5.439997428E+01+
*       5.3829305702E+00               0
GRID*               2906               06.3305787975E+01-5.281324950E-02+
*       1.0870126886E+01               0
GRID*               2907               06.2214743581E+014.4982445446E-01+
*       1.6666666667E+01               0
GRID*               2908               06.4977253815E+012.6931115830E+00+
*       1.4203460220E+01               0
GRID*               2909               06.2914483640E+012.9211014873E+00+
*       1.0870143922E+01               0
GRID*               2910               01.9150942152E+001.7230919775E+01+
*       -7.142874774E+00               0
GRID*               2911               01.3171110409E+002.1194838349E+01+
*       -6.646809727E+00               0
GRID*               2912               02.2723885382E+001.8392894516E+01+
*       -3.789674744E+00               0
GRID*               2913               04.7850734358E+001.6659960801E+01+
*       -7.142865016E+00               0
GRID*               2914               0-6.194031578E+002.4188569545E+01+
*       -1.487069562E-01               0
GRID*               2915               0-3.530822272E+002.5655647392E+01+
*       -3.591460957E-01               0
GRID*               2916               0-7.080242061E+002.4354540056E+01+
*       -4.769703842E+00               0
GRID*               2917               0-6.752281171E+002.8549493230E+01+
*       -2.045669622E+00               0
GRID*               2918               0-4.417032756E+002.5821617902E+01+
*       -4.980142981E+00               0
GRID*               2919               0-2.754405312E+001.8092131673E+01+
*       6.5148100483E+00               0
GRID*               2920               02.4328235878E+002.6008523392E+01+
*       -4.980142981E+00               0
GRID*               2921               05.8094773472E+002.5598778947E+01+
*       -1.570255774E+00               0
GRID*               2922               02.1810799026E+002.2518027619E+01+
*       1.1626775309E-01               0
GRID*               2923               02.2725592711E+001.8392814171E+01+
*       -9.325493592E-01               0
GRID*               2924               05.9009567157E+002.1473565499E+01+
*       -2.619072886E+00               0
GRID*               2925               0-3.351798897E+002.2056087309E+01+
*       1.2965346791E+00               0
GRID*               2926               01.5754370438E-012.6904259481E+01+
*       5.3102850400E-01               0
GRID*               2927               01.9169636976E+01-5.211637554E+01+
*       8.5354297689E+00               0
GRID*               2928               0-5.687047312E+002.4783962638E+01+
*       4.2310080378E+00               0
GRID*               2929               0-2.177704711E+002.9632134809E+01+
*       3.4655018627E+00               0
GRID*               2930               0-3.384098000E+015.4340202095E+01+
*       8.0098226798E+00               0
GRID*               2931               0-2.661201161E+01-1.335954347E+01+
*       2.5688903619E-01               0
GRID*               2932               0-1.721727013E+01-1.217669297E+01+
*       1.3475752066E+00               0
GRID*               2933               0-1.339290998E+01-2.103413454E+01+
*       -2.805466699E+00               0
GRID*               2934               0-1.547801921E+01-2.561335681E+01+
*       -7.733477959E-01               0
GRID*               2935               0-1.910022673E+01-2.293376461E+01+
*       -1.824946158E+00               0
GRID*               2936               0-2.938552806E+01-1.496404038E+01+
*       8.5994333253E+00               0
GRID*               2937               0-2.842599051E+01-1.973466707E+01+
*       1.5083870962E+00               0
GRID*               2938               06.6167899218E+016.4477606100E+00+
*       8.0331287560E+00               0
GRID*               2939               07.5767900408E+011.1218740786E-02+
*       1.5980530176E+01               0
GRID*               2940               05.6072528900E+012.2819512634E+01+
*       1.5269932863E+01               0
GRID*               2941               0-2.649251135E+01-5.726723003E+01+
*       3.3333162998E+00               0
GRID*               2942               0-2.981535295E+01-5.490022693E+01+
*       1.6666683710E+01               0
GRID*               2943               0-2.848309857E+01-6.007156828E+01+
*       1.7616938468E+01               0
GRID*               2944               0-2.738576429E+01-5.651525330E+01+
*       1.6666683710E+01               0
GRID*               2945               0-3.122338534E+01-6.416336096E+01+
*       1.2558220208E+01               0
GRID*               2946               0-3.344837621E+01-6.541188525E+01+
*       1.4941281740E+01               0
GRID*               2947               03.2286885053E+011.5018125092E+01+
*       1.8189047041E+01               0
GRID*               2948               02.7620772464E+012.5567335808E+01+
*       1.2742464685E+01               0
GRID*               2949               01.6727200661E+011.7985606185E+01+
*       1.1947948975E+01               0
GRID*               2950               01.4991939340E+012.0018423090E+01+
*       1.6792478368E+01               0
GRID*               2951               01.4324051187E+011.4221078741E+01+
*       1.2597253126E+01               0
GRID*               2952               01.9689589150E+011.6579730050E+01+
*       1.6909938301E+01               0
GRID*               2953               03.4430474894E+011.0219084099E+01+
*       5.3081072604E+00               0
GRID*               2954               02.7800249610E+011.0642558086E+01+
*       9.5271910021E+00               0
GRID*               2955               02.2171547997E+011.4188040475E+01+
*       -4.940104585E+00               0
GRID*               2956               02.3702855575E+011.7623149738E+01+
*       -1.820148276E+00               0
GRID*               2957               02.5508492697E+011.4683949477E+01+
*       -1.820148276E+00               0
GRID*               2958               03.0159724355E+011.5806174040E+01+
*       1.5131849778E+00               0
GRID*               2959               03.2532599419E+019.5666065365E+00+
*       1.3381439607E+00               0
GRID*               2960               0-1.933359178E+001.8219046298E+01+
*       1.0950600948E+01               0
GRID*               2961               0-2.754170339E+001.8092146444E+01+
*       3.6576453902E+00               0
GRID*               2962               02.7787084604E+001.8554086754E+01+
*       2.4773784642E+00               0
GRID*               2963               01.4539003754E+011.6940850716E+01+
*       -2.619031039E+00               0
GRID*               2964               01.4539102545E+011.6940768994E+01+
*       -5.476185766E+00               0
GRID*               2965               01.5804127855E+011.0297553100E+01+
*       -3.749623844E+00               0
GRID*               2966               0-1.113731828E+012.6870017979E+01+
*       3.5239947811E+00               0
GRID*               2967               0-1.028875073E+012.3086550948E+01+
*       -4.769703842E+00               0
GRID*               2968               0-1.523203744E+012.5767999382E+01+
*       -1.097002104E+00               0
GRID*               2969               0-9.960789842E+002.7281504123E+01+
*       -2.045669622E+00               0
GRID*               2970               0-1.404700944E+012.1280530915E+01+
*       -3.949439734E+00               0
GRID*               2971               0-2.154422557E+016.4099279890E+01+
*       1.2042791807E+01               0
GRID*               2972               03.4984665487E-013.0291859187E+01+
*       -1.155495023E+00               0
GRID*               2973               0-3.338519322E+002.9043247098E+01+
*       -2.045669622E+00               0
GRID*               2974               0-6.475851835E+002.2076322059E+01+
*       -6.436370588E+00               0
GRID*               2975               0-3.812642529E+002.3543399906E+01+
*       -6.646809727E+00               0
GRID*               2976               0-1.662297621E+013.0346077057E+01+
*       2.2363311496E+00               0
GRID*               2977               05.6291455938E+011.1854969464E+01+
*       3.3333162998E+00               0
GRID*               2978               06.0241680061E+018.3267558956E+00+
*       7.1629848362E+00               0
GRID*               2979               05.4740928591E+011.2539491977E+01+
*       8.6032491623E+00               0
GRID*               2980               04.6200449790E+019.2830299215E+00+
*       4.9521779008E+00               0
GRID*               2981               04.7046418715E+013.4155011462E+00+
*       3.3333333333E+00               0
GRID*               2982               03.8152963527E+011.5406138917E+01+
*       3.9699632997E+00               0
GRID*               2983               05.2758784025E+018.1563498290E+00+
*       3.3333162998E+00               0
GRID*               2984               0-2.658740001E+016.3834869611E+01+
*       1.1703931422E+01               0
GRID*               2985               0-3.032066554E+015.9622595898E+01+
*       1.1823271852E+01               0
GRID*               2986               0-2.880731200E+016.0691755968E+01+
*       1.7146782505E+01               0
GRID*               2987               0-3.312532857E+015.9822066723E+01+
*       1.4676489347E+01               0
GRID*               2988               0-2.994762209E+015.7235601651E+01+
*       1.6666683710E+01               0
GRID*               2989               0-2.714317694E+015.7036102797E+01+
*       1.7146782505E+01               0
GRID*               2990               0-2.567043571E+016.2845364849E+01+
*       1.7146782505E+01               0
GRID*               2991               0-3.803915316E+011.0484854718E+01+
*       4.4718112328E+00               0
GRID*               2992               0-3.985156250E+017.3153762964E+00+
*       5.3548552619E+00               0
GRID*               2993               0-4.280235053E+018.4262146964E+00+
*       5.3548552619E+00               0
GRID*               2994               0-3.313267055E+011.0494620714E+01+
*       6.8856583065E+00               0
GRID*               2995               0-3.494507988E+017.3251422922E+00+
*       7.7687023356E+00               0
GRID*               2996               0-3.349133923E+017.6067306456E+00+
*       2.4138470737E+00               0
GRID*               2997               0-3.396815380E+018.2002955838E+00+
*       1.2195692147E+01               0
GRID*               2998               0-2.904467552E+018.0383703831E+00+
*       1.6241592952E+01               0
GRID*               2999               0-3.275700620E+011.3210819585E+01+
*       1.2989523270E+01               0
GRID*               3000               0-3.470019946E+015.6278726760E+00+
*       1.7723880915E+01               0
GRID*               3001               0-3.348905187E+011.0638396677E+01+
*       1.8517712037E+01               0
GRID*               3002               0-4.504106155E+011.0408727236E+01+
*       9.8371628429E+00               0
GRID*               3003               0-1.831502739E+014.7634464446E+01+
*       8.0904405739E+00               0
GRID*               3004               0-1.568190490E+014.7045681057E+01+
*       4.7571242869E+00               0
GRID*               3005               0-2.937111274E+014.0150974360E+01+
*       3.3333162998E+00               0
GRID*               3006               0-2.967111052E+013.9188507158E+01+
*       7.2660422616E+00               0
GRID*               3007               0-3.232636326E+013.7656548734E+01+
*       3.9327259618E+00               0
GRID*               3008               0-2.840973482E+013.7265140224E+01+
*       3.9327259618E+00               0
GRID*               3009               07.4045480435E+00-4.915892440E+01+
*       5.1609320900E+00               0
GRID*               3010               0-2.732361886E+00-3.347755912E+01+
*       1.2518702498E+01               0
GRID*               3011               09.7843519441E-01-2.982670448E+01+
*       1.7372015710E+01               0
GRID*               3012               08.0205145137E-01-2.933642218E+01+
*       1.1395404713E+01               0
GRID*               3013               04.1723862834E+00-3.380386496E+01+
*       3.0857437756E+00               0
GRID*               3014               06.3797294563E-01-3.794500189E+01+
*       4.2090415604E+00               0
GRID*               3015               0-4.029018474E+00-3.302836002E+01+
*       6.4130518017E+00               0
GRID*               3016               0-9.300137287E-01-3.404664206E+01+
*       2.2040102413E+00               0
GRID*               3017               0-2.396546603E+00-3.499417475E+01+
*       1.8309660938E+01               0
GRID*               3018               0-3.906535955E+00-3.785060856E+01+
*       4.2090415604E+00               0
GRID*               3019               0-3.573347378E+014.3537703452E+01+
*       3.3333162870E+00               0
GRID*               3020               0-3.591658673E+013.9895259025E+01+
*       3.9327259618E+00               0
GRID*               3021               0-3.244324809E+014.0336525959E+01+
*       7.2660422488E+00               0
GRID*               3022               0-3.479741452E+014.1448847741E+01+
*       1.0539703542E+01               0
GRID*               3023               0-3.827075315E+014.1007580807E+01+
*       7.2063872551E+00               0
GRID*               3024               0-3.498052747E+013.7806403313E+01+
*       1.1139113217E+01               0
GRID*               3025               0-3.950871702E+013.4126010079E+01+
*       1.7206387255E+01               0
GRID*               3026               0-3.535576734E+013.6648161898E+01+
*       1.7206387255E+01               0
GRID*               3027               0-3.244351537E+014.0336874529E+01+
*       1.0599409664E+01               0
GRID*               3028               0-4.070939150E+013.5746756494E+01+
*       1.0942758729E+01               0
GRID*               3029               01.3364901854E+01-7.470632529E+01+
*       1.4846802857E+01               0
GRID*               3030               01.3442488361E+01-8.046393292E+01+
*       9.8467831266E+00               0
GRID*               3031               08.4979898129E+00-8.117482097E+01+
*       9.8467986529E+00               0
GRID*               3032               01.0040864746E+01-7.732897551E+01+
*       4.8468028568E+00               0
GRID*               3033               01.3974628741E+01-8.262234186E+01+
*       4.9999802698E+00               0
GRID*               3034               09.0301301930E+00-8.333322991E+01+
*       4.9999957961E+00               0
GRID*               3035               01.0129464699E+01-7.741967870E+01+
*       1.4846802857E+01               0
GRID*               3036               0-3.546148639E+012.8798349404E+00+
*       6.9699060637E+00               0
GRID*               3037               0-3.400774573E+013.1614232938E+00+
*       1.6150508019E+00               0
GRID*               3038               0-2.876160890E+01-6.220055914E+00+
*       5.2052730919E+00               0
GRID*               3039               0-3.367025518E+01-5.859450326E+00+
*       1.6150508019E+00               0
GRID*               3040               0-2.892006513E+01-5.285080622E+00+
*       -1.718282452E+00               0
GRID*               3041               0-2.806400441E+01-1.023101847E+01+
*       2.5688903619E-01               0
GRID*               3042               0-3.371897436E+01-3.565030094E+00+
*       7.5138645560E+00               0
GRID*               3043               0-3.286291363E+01-8.510967945E+00+
*       9.4890360442E+00               0
GRID*               3044               0-1.691453072E+014.1552338380E+00+
*       3.8786467628E+00               0
GRID*               3045               0-1.568074925E+017.9709251469E+00+
*       6.6062593959E+00               0
GRID*               3046               0-1.737273852E+014.9970261191E+00+
*       9.8609691656E+00               0
GRID*               3047               0-2.898873280E+015.9876166554E+00+
*       -9.194861801E-01               0
GRID*               3048               01.5301457372E+011.4861592061E+01+
*       2.0171835672E+01               0
GRID*               3049               01.5143571315E+011.3043079825E+01+
*       1.6868723902E+01               0
GRID*               3050               01.7856238821E+011.1650776240E+01+
*       1.9598777056E+01               0
GRID*               3051               01.4310311953E+011.2037967863E+01+
*       2.0736663998E+01               0
GRID*               3052               01.1597644447E+011.3430271447E+01+
*       1.8006610844E+01               0
GRID*               3053               01.4152425896E+011.0219455626E+01+
*       1.7433552228E+01               0
GRID*               3054               01.8000643429E+014.6821294230E+00+
*       1.7368442494E+01               0
GRID*               3055               01.5778178007E+017.7862887606E+00+
*       1.4576409881E+01               0
GRID*               3056               01.6878832636E+011.1010262920E+01+
*       1.2024194510E+01               0
GRID*               3057               01.4152384456E+011.0219489906E+01+
*       1.4576414351E+01               0
GRID*               3058               01.1597603007E+011.3430305727E+01+
*       1.5149472967E+01               0
GRID*               3059               01.3332864327E+011.1397488822E+01+
*       1.0304943574E+01               0
GRID*               3060               06.2665683871E+01-4.394099851E+01+
*       1.4619369148E+01               0
GRID*               3061               05.9114789621E+01-4.874022667E+01+
*       1.4395727626E+01               0
GRID*               3062               06.4459848396E+01-4.878450732E+01+
*       9.6194166771E+00               0
GRID*               3063               06.5942845170E+01-5.054549769E+01+
*       1.5000047529E+01               0
GRID*               3064               03.1150640433E+01-3.032155015E+01+
*       1.4571553360E+01               0
GRID*               3065               02.9281272451E+01-2.897755865E+01+
*       1.0367913312E+01               0
GRID*               3066               06.3014084650E+017.1783882182E+00+
*       1.0496352239E+01               0
GRID*               3067               06.5076854825E+016.9503983139E+00+
*       1.3829668536E+01               0
GRID*               3068               0-3.575333497E+01-4.976525943E+01+
*       3.1880576005E+00               0
GRID*               3069               0-4.630245052E+01-5.244715236E+01+
*       5.3384029388E+00               0
GRID*               3070               0-6.204104216E+014.4819544155E+00+
*       3.3333333333E+00               0
GRID*               3071               0-3.753997458E+01-5.220393079E+01+
*       3.3333162869E+00               0
GRID*               3072               0-5.847358864E+017.6458924599E+00+
*       1.6666683710E+01               0
GRID*               3073               0-6.085359303E+015.8196530869E+00+
*       1.6666666667E+01               0
GRID*               3074               01.3731508737E+00-1.696130024E+01+
*       2.1871003006E+01               0
GRID*               3075               0-1.846292377E+00-1.873336035E+01+
*       2.3687148390E+01               0
GRID*               3076               0-1.846646994E+00-1.873333806E+01+
*       2.0829972632E+01               0
GRID*               3077               0-4.735339956E-01-2.069472568E+01+
*       2.1272401848E+01               0
GRID*               3078               0-1.288913589E-01-2.447553197E+01+
*       1.8037789170E+01               0
GRID*               3079               03.6768520657E+00-2.378355577E+01+
*       1.2813872007E+01               0
GRID*               3080               08.0437171005E+00-1.945020293E+01+
*       9.1332144165E+00               0
GRID*               3081               07.8123968649E+00-2.391017015E+01+
*       8.7453865772E+00               0
GRID*               3082               0-3.342099945E-01-1.734628910E+01+
*       1.1258285521E+01               0
GRID*               3083               08.3789778306E+00-1.651681308E+01+
*       9.2311102628E+00               0
GRID*               3084               05.4056960774E+00-1.679112169E+01+
*       7.0450390759E+00               0
GRID*               3085               01.3104858928E+01-2.291918334E+01+
*       8.2549849923E+00               0
GRID*               3086               01.2517520872E+01-1.654453003E+01+
*       8.0664938132E+00               0
GRID*               3087               09.8794998489E+00-1.388544880E+01+
*       5.9783184726E+00               0
GRID*               3088               09.8816832736E+00-3.283102854E+01+
*       1.3085743776E+01               0
GRID*               3089               08.6139078361E+00-3.284815995E+01+
*       3.0857437756E+00               0
GRID*               3090               01.7982870102E+00-3.008323894E+01+
*       2.2395687788E+01               0
GRID*               3091               0-2.528482794E+00-2.650412655E+01+
*       2.4877606631E+01               0
GRID*               3092               06.3379255772E-01-2.604589818E+01+
*       2.0606628388E+01               0
GRID*               3093               0-2.183840157E+00-3.028493284E+01+
*       2.1642993953E+01               0
GRID*               3094               01.3414771049E+01-2.108423631E+01+
*       1.9026831073E+01               0
GRID*               3095               01.4733544822E+01-2.581187809E+01+
*       2.2300565273E+01               0
GRID*               3096               01.1420697986E+01-2.647871111E+01+
*       1.8029587030E+01               0
GRID*               3097               01.0058067017E+01-3.332131083E+01+
*       1.9062354772E+01               0
GRID*               3098               01.6518202641E+01-3.017501137E+01+
*       1.8967232257E+01               0
GRID*               3099               01.5855805646E+00-3.479248085E+01+
*       1.9062354772E+01               0
GRID*               3100               02.4392468013E+011.9069767358E+01+
*       2.1522380057E+01               0
GRID*               3101               01.9694818203E+012.2508460398E+01+
*       2.1404920124E+01               0
GRID*               3102               01.2784877982E+011.6148792537E+01+
*       8.9082630506E+00               0
GRID*               3103               01.1049616662E+011.8181609442E+01+
*       1.3752792443E+01               0
GRID*               3104               02.2402256656E+011.5187426465E+01+
*       1.9639991454E+01               0
GRID*               3105               01.7704606846E+011.8626119505E+01+
*       1.9522531521E+01               0
GRID*               3106               02.7833794720E+011.3471462653E+01+
*       2.1522380057E+01               0
GRID*               3107               02.9833088085E+016.9285153907E+00+
*       2.1483665598E+01               0
GRID*               3108               03.4286178417E+018.4751778296E+00+
*       1.8150332583E+01               0
GRID*               3109               02.6417596026E+011.6457623078E+01+
*       2.1522380057E+01               0
GRID*               3110               02.2029464249E+011.4739485089E+01+
*       2.4784277428E+01               0
GRID*               3111               03.1949421776E+015.9746277799E+01+
*       4.6981199713E+00               0
GRID*               3112               03.0128174667E+015.7726316078E+01+
*       8.0314533050E+00               0
GRID*               3113               02.7766166461E+015.5446333007E+01+
*       3.3333333337E+00               0
GRID*               3114               03.8372958410E+015.6668187546E+01+
*       6.5512863125E+00               0
GRID*               3115               04.4802922018E+017.0294684951E+01+
*       1.5000067638E+01               0
GRID*               3116               04.4101861063E+016.3308246867E+01+
*       1.6296153246E+01               0
GRID*               3117               04.8607152030E+016.5124535183E+01+
*       1.1296208573E+01               0
GRID*               3118               04.8926363718E+016.7475147480E+01+
*       1.5000055326E+01               0
GRID*               3119               04.7125053967E+016.0403546665E+01+
*       1.6296153246E+01               0
GRID*               3120               05.1949556623E+016.4570447278E+01+
*       1.5000055326E+01               0
GRID*               3121               01.5738652665E+01-7.410035435E+00+
*       1.0321436552E+01               0
GRID*               3122               01.2312229519E+01-1.225994078E+01+
*       5.9782693036E+00               0
GRID*               3123               01.4112859113E+01-9.843236581E+00+
*       1.0321432082E+01               0
GRID*               3124               01.4318150466E+01-1.412782584E+01+
*       1.2409656591E+01               0
GRID*               3125               01.0811707501E+01-1.489130506E+01+
*       9.2310610938E+00               0
GRID*               3126               01.4112820381E+01-9.843268620E+00+
*       1.3178570284E+01               0
GRID*               3127               01.0811668769E+01-1.489133710E+01+
*       1.2088199296E+01               0
GRID*               3128               01.7642563975E+01-1.770688603E+01+
*       1.3566457834E+01               0
GRID*               3129               01.8287589710E+01-2.186093141E+01+
*       1.1456002754E+01               0
GRID*               3130               01.9788111729E+01-1.922956712E+01+
*       8.2032109636E+00               0
GRID*               3131               01.4448916232E+01-2.125415298E+01+
*       1.4626875059E+01               0
GRID*               3132               09.9002569392E+00-2.765345916E+01+
*       5.6810859662E+00               0
GRID*               3133               01.7666893428E+01-1.070827983E+01+
*       2.1459249780E+00               0
GRID*               3134               0-1.737273045E+014.9970407970E+00+
*       1.2718110472E+01               0
GRID*               3135               0-1.794358060E+012.1265088323E+00+
*       1.2718148992E+01               0
GRID*               3136               0-1.757330168E+011.2345185501E+01+
*       -2.324347294E+00               0
GRID*               3137               0-1.724709388E+011.5376964335E+01+
*       -5.616106480E+00               0
GRID*               3138               0-2.078188566E+011.1340573531E+01+
*       -6.708240814E+00               0
GRID*               3139               0-2.270896343E+011.2697761474E+01+
*       -5.041574068E+00               0
GRID*               3140               0-1.917417164E+011.6734152277E+01+
*       -3.949439734E+00               0
GRID*               3141               0-1.910500240E+011.6941765191E+01+
*       1.4264613050E+00               0
GRID*               3142               0-2.263979419E+011.2905374387E+01+
*       3.3432697107E-01               0
GRID*               3143               0-1.930571722E+019.2551737163E+00+
*       1.3265928632E+00               0
GRID*               3144               0-1.577092543E+011.3291564520E+01+
*       2.4187271971E+00               0
GRID*               3145               0-2.083741794E+011.3851753406E+01+
*       5.0774014626E+00               0
GRID*               3146               0-2.424066415E+011.7294341164E+01+
*       -1.290765469E+00               0
GRID*               3147               0-1.894770187E+012.2513938912E+01+
*       1.0510455777E+01               0
GRID*               3148               0-2.467206572E+012.4647744862E+01+
*       6.6892911051E+00               0
GRID*               3149               0-2.029003040E+012.1429233657E+01+
*       4.2788989348E+00               0
GRID*               3150               0-2.074977007E+012.1391344384E+01+
*       2.1607457643E+01               0
GRID*               3151               0-1.695262517E+012.5005936018E+01+
*       2.1088250314E+01               0
GRID*               3152               0-2.003763488E+012.8570294266E+01+
*       1.7754917298E+01               0
GRID*               3153               0-1.418592315E+012.2185921099E+01+
*       2.0012499717E+01               0
GRID*               3154               0-1.724600026E+012.0291309262E+01+
*       2.5590915435E+01               0
GRID*               3155               0-1.452793566E+012.2172201954E+01+
*       2.5590915435E+01               0
GRID*               3156               0-1.423456056E+012.6886828709E+01+
*       2.1088250314E+01               0
GRID*               3157               0-4.802804578E+001.7648274434E+01+
*       1.3807679371E+01               0
GRID*               3158               0-5.606151681E+016.0570632563E+01+
*       1.4999962463E+01               0
GRID*               3159               0-5.244474650E+016.3813062794E+01+
*       1.4999962463E+01               0
GRID*               3160               0-1.539531717E+017.9709662157E+00+
*       1.6135406778E+01               0
GRID*               3161               0-1.376984357E+011.0403686028E+01+
*       1.6135458331E+01               0
GRID*               3162               0-1.568074118E+017.9709398248E+00+
*       9.4634007021E+00               0
GRID*               3163               0-1.721791696E+011.0201579126E+01+
*       1.2741673430E+01               0
GRID*               3164               0-1.405526758E+011.0403659637E+01+
*       9.4634522551E+00               0
GRID*               3165               0-1.412094264E+012.1459792914E+01+
*       6.4418787228E+00               0
GRID*               3166               0-7.849625540E+001.9500652198E+01+
*       1.1584682879E+01               0
GRID*               3167               0-8.879239861E+002.4169389830E+01+
*       1.5134052604E+01               0
GRID*               3168               0-1.167054719E+011.2687204903E+01+
*       1.3965170011E+01               0
GRID*               3169               0-1.122025680E+011.4084419564E+01+
*       1.0634166151E+01               0
GRID*               3170               01.0058429802E+011.5358019524E+01+
*       1.1460482892E+01               0
GRID*               3171               01.2615041401E+012.2951188602E+01+
*       7.4619245528E+00               0
GRID*               3172               09.1080241105E+002.4893690270E+01+
*       9.2654813795E+00               0
GRID*               3173               01.7004879114E+013.0199547172E+01+
*       2.4300233688E+00               0
GRID*               3174               02.3308996123E+013.1484561915E+01+
*       5.1829641871E+00               0
GRID*               3175               02.0748146435E+012.7624615079E+01+
*       2.4300233688E+00               0
GRID*               3176               01.0835111376E+011.9253673477E+01+
*       6.4184295351E+00               0
GRID*               3177               0-2.057048353E+01-3.974778902E+01+
*       1.6666683702E+01               0
GRID*               3178               0-7.820171303E+002.1314597685E+01+
*       2.6620197707E+01               0
GRID*               3179               0-1.054746831E+012.1052028733E+01+
*       2.4642532024E+01               0
GRID*               3180               0-1.284600204E+012.0385776046E+01+
*       2.7257582419E+01               0
GRID*               3181               0-1.949508941E+011.4936458661E+01+
*       1.1308958305E+01               0
GRID*               3182               0-3.209795391E+011.1931618872E+01+
*       2.4138470737E+00               0
GRID*               3183               0-2.637817576E+011.2559225360E+01+
*       4.4564148590E+00               0
GRID*               3184               0-3.578056313E+015.0308171625E+00+
*       1.3078736176E+01               0
GRID*               3185               0-2.600617267E+015.7609523497E+00+
*       2.5294616992E+01               0
GRID*               3186               0-3.008708445E+014.6577258851E+00+
*       2.1057213930E+01               0
GRID*               3187               0-2.296453205E+01-4.156255515E+00+
*       1.6088240853E+01               0
GRID*               3188               0-1.794358060E+012.1264318547E+00+
*       1.5575298961E+01               0
GRID*               3189               0-2.021510684E+01-2.196843654E+00+
*       1.9486094412E+01               0
GRID*               3190               0-1.774926690E+01-1.960302831E+00+
*       1.5173657470E+01               0
GRID*               3191               0-6.287049624E+011.4667567229E-01+
*       1.6666666667E+01               0
GRID*               3192               0-2.887593686E+019.6682498863E+00+
*       2.1851045053E+01               0
GRID*               3193               0-2.967154600E+013.9188449832E+01+
*       1.0599409672E+01               0
GRID*               3194               0-3.797697970E+014.6161742402E+01+
*       7.8103148358E+00               0
GRID*               3195               0-3.214325031E+014.1298993162E+01+
*       3.3333162870E+00               0
GRID*               3196               0-5.858439578E+00-1.717366472E+01+
*       1.7013254436E+01               0
GRID*               3197               0-1.043435861E+01-1.535712051E+01+
*       1.6989121681E+01               0
GRID*               3198               0-1.341739454E+01-1.056591703E+01+
*       9.8406360953E+00               0
GRID*               3199               07.7256132466E+013.0642715104E+01+
*       4.9999542640E+00               0
GRID*               3200               07.5311565836E+013.5244032755E+01+
*       4.9999372630E+00               0
GRID*               3201               03.6151741708E+01-1.339089366E+01+
*       1.4181187831E+01               0
GRID*               3202               03.3822056907E+01-9.124281108E+00+
*       1.7603327191E+01               0
GRID*               3203               03.1146612305E+01-1.432562815E+01+
*       1.7906815033E+01               0
GRID*               3204               03.3244420834E+01-2.683986319E+01+
*       4.5715533596E+00               0
GRID*               3205               03.7118297574E+01-2.298986304E+01+
*       5.3501189107E+00               0
GRID*               3206               0-9.700285995E+002.4042475205E+01+
*       1.0698261704E+01               0
GRID*               3207               0-1.293304404E+011.9203344069E+01+
*       -5.616106480E+00               0
GRID*               3208               0-8.670671674E+001.9373737573E+01+
*       7.1488919795E+00               0
GRID*               3209               0-1.222940192E+012.2838454641E+01+
*       2.2975865040E+01               0
GRID*               3210               01.2916126953E+001.7932880177E+01+
*       1.1539978093E+01               0
GRID*               3211               0-1.933299811E+001.8219050030E+01+
*       1.3807738301E+01               0
GRID*               3212               03.8267729201E+003.6138010448E+01+
*       5.9991399344E+00               0
GRID*               3213               03.5379362334E+001.6869319169E+01+
*       1.8985661985E+01               0
GRID*               3214               01.2917592868E+001.7932889392E+01+
*       1.4397107354E+01               0
GRID*               3215               05.7488136200E+017.4110847483E+00+
*       3.3333162998E+00               0
GRID*               3216               0-1.117536630E+012.8139561545E+01+
*       2.1088250314E+01               0
GRID*               3217               0-1.247982388E+013.2669514729E+01+
*       1.7754917298E+01               0
GRID*               3218               0-1.003308720E+003.4718098421E+01+
*       1.6930642861E+01               0
GRID*               3219               01.0058391071E+011.5358051563E+01+
*       8.6033446899E+00               0
GRID*               3220               01.1383058990E+011.4502401801E+01+
*       4.9579718569E+00               0
GRID*               3221               01.3332825596E+011.1397520861E+01+
*       7.4478053724E+00               0
GRID*               3222               03.0163764733E+012.8472410331E+01+
*       4.5534176433E+00               0
GRID*               3223               02.6257758576E+012.5543896944E+01+
*       6.0666026211E+00               0
GRID*               3224               02.7113905011E+013.1842641677E+01+
*       4.5534176433E+00               0
GRID*               3225               02.4920507092E+012.3157431459E+01+
*       1.5131849778E+00               0
GRID*               3226               05.1081330148E+003.0279402099E+01+
*       6.4114184267E+00               0
GRID*               3227               05.6631924012E+003.4386071180E+01+
*       2.1778382312E+00               0
GRID*               3228               03.7859411489E+002.9985010809E+01+
*       -1.155495023E+00               0
GRID*               3229               07.3834128983E+002.9383666010E+01+
*       9.0024694165E-01               0
GRID*               3230               0-1.003270906E+002.6315371770E+01+
*       -4.980142981E+00               0
GRID*               3231               0-1.293591465E+011.6972324448E+01+
*       3.5894410930E+00               0
GRID*               3232               08.9503914529E+001.6127866770E+01+
*       4.9579156453E+00               0
GRID*               3233               07.3331048107E+01-1.640317362E+01+
*       1.3438642531E+01               0
GRID*               3234               06.9986722592E+01-2.437367191E+01+
*       4.9181579897E+00               0
GRID*               3235               06.8637847557E+01-1.885959481E+01+
*       4.9181579897E+00               0
GRID*               3236               06.5522094862E+01-2.296412454E+01+
*       4.9181579897E+00               0
GRID*               3237               06.4604423831E+01-2.207280720E+00+
*       1.6666666667E+01               0
GRID*               3238               05.3227164032E+016.2402388631E+01+
*       1.0672128471E+01               0
GRID*               3239               05.6935749570E+01-8.181938725E+00+
*       3.2714372542E+00               0
GRID*               3240               06.0050215377E+004.7358696579E+01+
*       3.8213017031E+00               0
GRID*               3241               02.4429461289E+004.3954173129E+01+
*       3.8213017031E+00               0
GRID*               3242               0-1.195654681E+014.6047420075E+01+
*       4.7571242869E+00               0
GRID*               3243               0-1.518678535E+014.3263202146E+01+
*       4.7571242869E+00               0
GRID*               3244               06.2355620303E+01-4.105229669E-01+
*       3.3333333333E+00               0
GRID*               3245               03.0203996731E+01-1.007756860E+00+
*       1.5753659774E+01               0
GRID*               3246               03.4711724421E+01-4.892617345E+00+
*       1.7603327191E+01               0
GRID*               3247               03.5296702852E+01-6.519055585E-02+
*       1.8150332583E+01               0
GRID*               3248               03.0020874842E+01-4.425812445E+00+
*       2.0936660245E+01               0
GRID*               3249               01.8000507138E+014.6824736135E+00+
*       2.0225619632E+01               0
GRID*               3250               01.5935927774E+019.6051451873E+00+
*       2.0736698789E+01               0
GRID*               3251               01.5778041716E+017.7866329511E+00+
*       1.7433587019E+01               0
GRID*               3252               03.5419907082E+019.9391432046E+00+
*       1.2120295883E+01               0
GRID*               3253               03.1162310638E+016.2772816224E-01+
*       9.9240265470E+00               0
GRID*               3254               02.9799542974E+014.0996108237E+00+
*       9.4884765436E+00               0
GRID*               3255               02.2297308821E+01-2.054502479E+00+
*       1.6800811160E+01               0
GRID*               3256               02.6251522733E+013.6096449404E+00+
*       2.4273198270E+01               0
GRID*               3257               03.0574368511E+013.7075072406E+00+
*       2.1483665596E+01               0
GRID*               3258               0-1.800240716E+011.7532513334E+01+
*       6.2481153585E+00               0
GRID*               3259               03.0005842335E+00-2.393326960E+01+
*       -7.599191674E+00               0
GRID*               3260               06.6707633370E+00-2.537941135E+01+
*       -5.932524927E+00               0
GRID*               3261               01.1244314243E+01-2.598842881E+01+
*       1.2052976033E+01               0
GRID*               3262               01.7224026150E+00-2.039697449E+01+
*       2.4403391753E+01               0
GRID*               3263               05.1518762488E+00-1.922269590E+01+
*       2.7859118138E+01               0
GRID*               3264               0-2.635036129E-01-2.129250720E+01+
*       2.6544273616E+01               0
GRID*               3265               0-2.539010153E-01-2.406382729E+01+
*       2.6544273616E+01               0
GRID*               3266               05.1614788463E+00-2.199401599E+01+
*       2.7859118138E+01               0
GRID*               3267               0-4.120299430E+00-2.936310133E+01+
*       -1.129323013E+00               0
GRID*               3268               09.8210058186E-01-2.912032422E+01+
*       -2.475894783E-01               0
GRID*               3269               04.0298380510E+00-3.724748021E+01+
*       6.9971715893E+00               0
GRID*               3270               0-8.786666168E+001.5710640323E+01+
*       4.9198222479E+00               0
GRID*               3271               0-1.122010665E+011.4084579453E+01+
*       7.7770029854E+00               0
GRID*               3272               0-1.232270189E+011.3493831311E+01+
*       2.9553489319E+00               0
GRID*               3273               0-5.979452989E-011.8963831198E+01+
*       -9.325087433E-01               0
GRID*               3274               0-2.435136187E+019.6648606615E+00+
*       -5.041574068E+00               0
GRID*               3275               0-2.588306259E+011.4261440352E+01+
*       -1.290765469E+00               0
GRID*               3276               0-2.808974344E+019.3187116335E+00+
*       -9.194861801E-01               0
GRID*               3277               0-1.405511743E+011.0403819526E+01+
*       6.6062890895E+00               0
GRID*               3278               0-1.466833019E+011.3882312663E+01+
*       7.2403812506E+00               0
GRID*               3279               0-9.142303637E+00-1.604040826E+01+
*       2.1335816004E+01               0
GRID*               3280               0-4.716495086E+00-1.816249692E+01+
*       2.0829998941E+01               0
GRID*               3281               0-1.478406990E+01-1.104143995E+01+
*       2.1450626872E+01               0
GRID*               3282               0-1.157530819E+01-1.441481159E+01+
*       2.1335837084E+01               0
GRID*               3283               0-1.286736317E+01-1.373152384E+01+
*       1.6989142760E+01               0
GRID*               3284               0-1.605723039E+01-2.085504682E+01+
*       2.5383423694E+01               0
GRID*               3285               0-1.504288366E+01-8.133169000E+00+
*       1.5554970381E+01               0
GRID*               3286               0-1.641014509E+01-8.608067831E+00+
*       2.1450596175E+01               0
GRID*               3287               0-1.341680847E+01-1.056654112E+01+
*       1.5555001078E+01               0
GRID*               3288               0-8.290847715E+01-6.751269555E+00+
*       4.9999980771E+00               0
GRID*               3289               01.9467523022E+01-8.291575636E+00+
*       6.4890877560E+00               0
GRID*               3290               02.3426933241E+01-8.949394489E+00+
*       4.0314970229E+00               0
GRID*               3291               03.1065609762E+01-1.366679714E+01+
*       1.2120297668E+00               0
GRID*               3292               03.5824448530E+014.5366076461E+00+
*       1.1797374627E+01               0
GRID*               3293               03.6100303959E+013.1497409784E-01+
*       1.3795344645E+01               0
GRID*               3294               0-5.736087203E+01-7.515234327E+00+
*       9.0099037945E+00               0
GRID*               3295               0-6.013300934E+01-6.367215219E+00+
*       9.0099037817E+00               0
GRID*               3296               0-6.032283559E+01-7.571870117E+00+
*       3.3333162870E+00               0
GRID*               3297               0-6.020927624E+01-1.483968244E+01+
*       1.5097258413E+01               0
GRID*               3298               0-7.883270891E+01-2.555455422E+01+
*       4.9999647991E+00               0
GRID*               3299               01.3355631087E+01-1.212143616E+01+
*       -4.901784789E-01               0
GRID*               3300               01.7586873608E+01-6.621853718E+00+
*       3.3104967289E+00               0
GRID*               3301               0-4.366911578E+01-2.472714563E+01+
*       1.5891767043E+01               0
GRID*               3302               0-4.099035164E+01-2.132710642E+01+
*       1.5023314553E+01               0
GRID*               3303               02.0823779012E+01-9.173980349E+00+
*       2.2180558486E+01               0
GRID*               3304               01.6842265811E+01-9.570444566E+00+
*       2.1379973262E+01               0
GRID*               3305               01.9720340560E+01-7.013130044E+00+
*       1.6836351430E+01               0
GRID*               3306               02.4301116817E+011.2761519922E+00+
*       -3.073821174E+00               0
GRID*               3307               0-2.387031564E+01-2.501592916E+00+
*       -7.613571853E+00               0
GRID*               3308               0-2.166645065E+01-4.006426617E+01+
*       8.5020594059E+00               0
GRID*               3309               0-2.050295090E+01-4.243582461E+01+
*       3.3333162870E+00               0
GRID*               3310               0-1.951816888E+01-3.014192318E+01+
*       1.3545777427E+01               0
GRID*               3311               0-1.842246904E+01-2.982509746E+01+
*       1.8377034308E+01               0
GRID*               3312               0-1.788372825E+01-1.153136140E+01+
*       2.7164880467E+01               0
GRID*               3313               0-1.467496655E+01-1.490473304E+01+
*       2.7050090679E+01               0
GRID*               3314               0-1.472931385E+01-3.123044061E+01+
*       2.5599854580E+00               0
GRID*               3315               0-1.800843910E+01-3.099489735E+00+
*       4.0018447335E+00               0
GRID*               3316               0-1.774926690E+01-1.959488838E+00+
*       9.4592964100E+00               0
GRID*               3317               0-2.798144108E+01-2.088975411E+01+
*       1.8024281708E+01               0
GRID*               3318               0-5.474522629E+00-3.395224873E+01+
*       2.2040102413E+00               0
GRID*               3319               01.2106193640E+011.8566378133E+01+
*       -2.619072886E+00               0
GRID*               3320               01.6951177937E+011.7348737579E+00+
*       -1.883344919E+00               0
GRID*               3321               01.7227776702E+011.9775348179E+00+
*       -7.142857143E+00               0
GRID*               3322               02.1945312462E+011.3524154003E+00+
*       -4.740487776E+00               0
GRID*               3323               01.9994134525E+01-3.824583576E-01+
*       -7.142857143E+00               0
GRID*               3324               03.5255776441E+014.2611102585E+00+
*       1.8150332583E+01               0
GRID*               3325               0-1.737272404E+014.9970524535E+00+
*       1.5575252097E+01               0
GRID*               3326               0-1.797606407E+015.4873247693E+00+
*       2.1246992627E+01               0
GRID*               3327               0-1.854692063E+012.6167041705E+00+
*       2.1247039491E+01               0
GRID*               3328               0-2.484647504E+017.9626456694E+00+
*       7.0560625960E-01               0
GRID*               3329               0-1.511862058E+011.2485098001E+01+
*       1.0571385110E+01               0
GRID*               3330               0-1.522171032E+011.3764393526E+01+
*       -5.616106480E+00               0
GRID*               3331               0-1.350555837E+011.0877014790E+01+
*       -7.142876823E+00               0
GRID*               3332               0-1.232235794E+011.3494197569E+01+
*       -2.758983303E+00               0
GRID*               3333               0-1.585714973E+019.4578067650E+00+
*       -3.851117637E+00               0
GRID*               3334               0-2.753853231E+012.0760874320E+01+
*       2.0425677852E+00               0
GRID*               3335               0-2.365706779E+012.4688153900E+01+
*       2.2363311496E+00               0
GRID*               3336               0-2.194252209E+011.9867408471E+01+
*       -1.290765469E+00               0
GRID*               3337               0-1.806105757E+012.3794688051E+01+
*       -1.097002104E+00               0
GRID*               3338               0-2.803910311E+012.7906665105E+01+
*       4.6467233199E+00               0
GRID*               3339               0-3.162532554E+01-5.124369232E+00+
*       1.6099152652E+01               0
GRID*               3340               0-2.915948560E+01-4.887828408E+00+
*       1.1786715710E+01               0
GRID*               3341               0-2.699103605E+01-7.883470058E+00+
*       1.7817782594E+01               0
GRID*               3342               0-2.452519612E+01-7.646929235E+00+
*       1.3505345652E+01               0
GRID*               3343               0-2.822862415E+01-1.127006877E+01+
*       1.1207665986E+01               0
GRID*               3344               01.8676959135E+01-2.322827660E+01+
*       -7.379910633E-01               0
GRID*               3345               04.8402661376E+015.8235488018E+01+
*       1.1968226391E+01               0
GRID*               3346               05.1745065969E+015.7681400113E+01+
*       1.5672073145E+01               0
GRID*               3347               03.5145778499E+00-2.588430970E+01+
*       4.8655210202E-01               0
GRID*               3348               01.2106287442E+00-1.906203859E+01+
*       -4.742054197E+00               0
GRID*               3349               04.0805850348E+00-1.849122266E+01+
*       -4.742068627E+00               0
GRID*               3350               01.6582367606E+00-1.727976497E+01+
*       -7.142862523E+00               0
GRID*               3351               05.0965780618E+00-2.987289725E+01+
*       2.2395687788E+01               0
GRID*               3352               06.1851881191E+00-2.422397356E+01+
*       2.6192451153E+01               0
GRID*               3353               01.3078758494E+01-1.421168973E+01+
*       1.6478958004E+01               0
GRID*               3354               04.8052606211E+01-2.563756811E+00+
*       3.3333162870E+00               0
GRID*               3355               07.4777784837E+01-2.219790006E+01+
*       3.4386425307E+00               0
GRID*               3356               07.9813533266E+01-2.519955503E+01+
*       3.4386425307E+00               0
GRID*               3357               02.3588875070E+01-2.528318158E+01+
*       1.8967232257E+01               0
GRID*               3358               02.6782522813E+01-2.173591463E+01+
*       1.7906815033E+01               0
GRID*               3359               01.7638908736E+01-2.423587541E+01+
*       2.2300565273E+01               0
GRID*               3360               01.6474081083E+01-2.147796937E+01+
*       2.3383734526E+01               0
GRID*               3361               07.6980825744E-01-2.629378486E+01+
*       2.4877606631E+01               0
GRID*               3362               06.0158002310E+01-7.259054239E+00+
*       3.3333333333E+00               0
GRID*               3363               0-1.264091123E+01-2.898207099E+01+
*       2.0822260566E+01               0
GRID*               3364               0-7.370125322E+013.9849158516E+01+
*       1.6619211245E+01               0
GRID*               3365               0-7.590535697E+013.5366428053E+01+
*       1.6619211245E+01               0
GRID*               3366               0-7.044200423E+013.8842358855E+01+
*       1.6619211245E+01               0
GRID*               3367               0-1.188167038E+01-2.452068865E+01+
*       1.9539018229E+01               0
GRID*               3368               04.0491542458E+014.1986791788E+01+
*       1.3658207178E+01               0
GRID*               3369               0-1.748313294E+017.0245325856E+00+
*       -9.939565219E-01               0
GRID*               3370               0-1.568075669E+017.9709116046E+00+
*       3.7491179696E+00               0
GRID*               3371               0-2.617311578E+011.5659120139E+01+
*       2.1851045053E+01               0
GRID*               3372               0-1.539531076E+017.9709778722E+00+
*       1.8992548403E+01               0
GRID*               3373               0-2.468287256E+013.4814867281E+01+
*       4.6467233199E+00               0
GRID*               3374               0-2.594424826E+013.6738234215E+01+
*       7.9800396196E+00               0
GRID*               3375               06.8878995601E+01-4.650428904E+01+
*       1.5000066945E+01               0
GRID*               3376               0-1.405468150E+011.0404283721E+01+
*       3.7490872727E+00               0
GRID*               3377               0-1.232226597E+011.3494295506E+01+
*       9.8147115099E-02               0
GRID*               3378               0-1.394834116E+011.1060923389E+01+
*       9.8177812041E-02               0
GRID*               3379               0-1.687602958E+011.9307219585E+01+
*       -3.949439734E+00               0
GRID*               3380               0-1.685684420E+015.1717787138E+00+
*       2.7142851982E+01               0
GRID*               3381               0-3.004678588E+013.8030208417E+01+
*       1.6666683710E+01               0
GRID*               3382               0-2.594468374E+013.6738176889E+01+
*       1.1313407030E+01               0
GRID*               3383               03.3881432618E+01-1.731949317E+01+
*       4.1811878312E+00               0
GRID*               3384               0-4.085340620E+00-1.964994202E+01+
*       -5.351967563E+00               0
GRID*               3385               0-7.221045988E-01-2.103481987E+01+
*       -7.599191674E+00               0
GRID*               3386               09.9483692406E-02-2.401257722E+01+
*       -7.599191674E+00               0
GRID*               3387               0-3.263752329E+00-2.262769937E+01+
*       -5.351967563E+00               0
GRID*               3388               01.5174145337E+01-3.184004173E+01+
*       1.2595342191E+01               0
GRID*               3389               04.4308553234E+00-2.902620722E+01+
*       -2.475894783E-01               0
GRID*               3390               07.7639803631E+00-2.813954762E+01+
*       -2.475894783E-01               0
GRID*               3391               0-3.403805110E+01-1.414047871E+00+
*       1.3622694669E+01               0
GRID*               3392               01.8157871983E+01-3.751696959E+00+
*       -2.403783176E+00               0
GRID*               3393               02.3152006507E+01-4.134155317E+00+
*       -5.260926033E+00               0
GRID*               3394               02.0004336235E+011.7351629369E+01+
*       2.4784277428E+01               0
GRID*               3395               0-1.951609990E+01-7.603820800E+00+
*       2.7164880467E+01               0
GRID*               3396               0-2.219624488E+01-7.934330763E+00+
*       2.2365219365E+01               0
GRID*               3397               0-1.964427756E+01-5.066523661E+00+
*       2.2343196433E+01               0
GRID*               3398               0-1.696413259E+01-4.736013697E+00+
*       2.7142857535E+01               0
GRID*               3399               0-1.641015045E+01-8.608058086E+00+
*       2.4307738002E+01               0
GRID*               3400               0-2.021510684E+01-2.196571050E+00+
*       2.2343212020E+01               0
GRID*               3401               0-1.376973462E+011.0403802041E+01+
*       1.8992586453E+01               0
GRID*               3402               0-1.376957348E+011.0403973627E+01+
*       2.1849707517E+01               0
GRID*               3403               0-5.081823728E+01-4.178430632E+01+
*       1.4626854335E+01               0
GRID*               3404               0-3.512701781E+011.3248590477E+00+
*       1.7723880915E+01               0
GRID*               3405               0-3.271429224E+01-2.385462312E+00+
*       2.0200338898E+01               0
GRID*               3406               0-8.237296476E+011.2099776718E+01+
*       5.0000151352E+00               0
GRID*               3407               0-8.294246940E+017.1370132277E+00+
*       5.0000019497E+00               0
GRID*               3408               0-1.964427220E+01-5.066533406E+00+
*       1.9486054606E+01               0
GRID*               3409               0-2.082898344E+01-7.459431932E+00+
*       1.6469593571E+01               0
GRID*               3410               0-1.717843227E+01-4.829992583E+00+
*       1.5173617663E+01               0
GRID*               3411               0-2.465180654E+01-7.163728462E+00+
*       2.5200338898E+01               0
GRID*               3412               0-2.652693531E+01-8.745900634E+00+
*       2.3533671913E+01               0
GRID*               3413               0-2.141767943E+01-1.070526289E+01+
*       2.7164880467E+01               0
GRID*               3414               0-4.290989024E+014.4208519857E+00+
*       5.3548552619E+00               0
GRID*               3415               0-4.577258409E+015.3431070937E+00+
*       8.6881715489E+00               0
GRID*               3416               0-4.726963146E+016.7355338470E+00+
*       3.3333162870E+00               0
GRID*               3417               0-4.737717117E+012.7301711364E+00+
*       3.3333162870E+00               0
GRID*               3418               0-4.316978368E+014.4338638648E+00+
*       1.5354855262E+01               0
GRID*               3419               0-4.763706461E+012.7431830155E+00+
*       1.3333316287E+01               0
GRID*               3420               0-4.822388047E+015.7722518008E+00+
*       1.3333316287E+01               0
GRID*               3421               0-4.749235794E+011.0837871943E+01+
*       1.4482307581E+01               0
GRID*               3422               0-4.950834248E+018.7180463863E+00+
*       7.8156238680E+00               0
GRID*               3423               0-1.794358060E+012.1272458472E+00+
*       9.8609379018E+00               0
GRID*               3424               0-1.504287621E+01-8.133182543E+00+
*       1.2697828954E+01               0
GRID*               3425               0-1.717842482E+01-4.830006125E+00+
*       1.2316476237E+01               0
GRID*               3426               04.4396745683E+01-7.031304945E+01+
*       1.4999932360E+01               0
GRID*               3427               04.0255116988E+01-7.289280558E+01+
*       1.4999932360E+01               0
GRID*               3428               06.8052931460E+018.7146956745E+00+
*       3.8296685364E+00               0
GRID*               3429               07.2359587393E+017.1353725100E+00+
*       3.8296685364E+00               0
GRID*               3430               07.1717966076E+011.1846220831E+01+
*       3.8296685364E+00               0
GRID*               3431               07.3428909802E+01-1.668382296E+01+
*       3.4386425307E+00               0
GRID*               3432               06.7277215545E+01-1.137656466E+01+
*       4.7040775261E+00               0
GRID*               3433               07.1064050449E+01-1.568740790E+01+
*       8.1427200567E+00               0
GRID*               3434               07.1632972026E+01-8.017732310E+00+
*       5.9805301755E+00               0
GRID*               3435               0-2.443858822E+01-3.891624711E+01+
*       8.5020594187E+00               0
GRID*               3436               0-1.527743458E+01-8.229108724E+00+
*       -7.142851982E+00               0
GRID*               3437               0-2.761197831E+01-5.623633805E+00+
*       2.3533671913E+01               0
GRID*               3438               0-1.625318858E+01-2.563982892E+01+
*       2.1710367324E+01               0
GRID*               3439               0-1.900658378E+01-2.381088493E+01+
*       2.1710367324E+01               0
GRID*               3440               0-1.504286814E+01-8.133197221E+00+
*       9.8406876483E+00               0
GRID*               3441               0-8.889699651E+004.9534541989E+01+
*       4.8197766877E+00               0
GRID*               3442               03.4779568920E+004.0264475991E+01+
*       3.8213017031E+00               0
GRID*               3443               0-1.890990622E+017.2276800983E+00+
*       1.5996383200E+01               0
GRID*               3444               0-3.436618402E+01-1.369285381E+00+
*       1.6150508019E+00               0
GRID*               3445               0-4.021000078E+012.7846676218E+00+
*       5.3548552619E+00               0
GRID*               3446               03.9718364134E+01-7.801550150E+00+
*       1.5645012062E+01               0
GRID*               3447               04.0608031648E+01-3.569886387E+00+
*       1.5645012062E+01               0
GRID*               3448               01.6392605426E+013.0816148172E+01+
*       1.9087407794E+01               0
GRID*               3449               02.6204937084E+013.6172547743E+01+
*       4.5534176433E+00               0
GRID*               3450               02.2400028197E+013.5814467980E+01+
*       5.1829641871E+00               0
GRID*               3451               02.4948209759E+013.7674685187E+01+
*       8.5162975203E+00               0
GRID*               3452               02.8753118647E+013.8032764950E+01+
*       7.8867509765E+00               0
GRID*               3453               02.6506899236E+013.9976205531E+01+
*       3.3333333332E+00               0
GRID*               3454               0-1.358496104E+011.0775210871E+01+
*       2.7142867764E+01               0
GRID*               3455               06.0260273515E+016.2630656405E+00+
*       3.3333162870E+00               0
GRID*               3456               05.6447490535E+002.5271974700E+01+
*       9.3449552928E+00               0
GRID*               3457               05.0205387116E+017.1485477952E+00+
*       1.6666683710E+01               0
GRID*               3458               0-1.774926690E+01-1.960225853E+00+
*       1.2316507501E+01               0
GRID*               3459               0-2.355574735E+015.8864797960E+00+
*       2.6961283977E+01               0
GRID*               3460               0-3.220611587E+01-6.679968843E+00+
*       2.0200338898E+01               0
GRID*               3461               0-5.623921195E+001.7521336904E+01+
*       6.5147524735E+00               0
GRID*               3462               07.6257001322E+001.6983527544E+01+
*       1.1460433723E+01               0
GRID*               3463               04.1624250751E+001.7361811975E+01+
*       1.1539907636E+01               0
GRID*               3464               04.3218485311E+01-1.653860598E+00+
*       1.5645012062E+01               0
GRID*               3465               04.7632334092E+01-1.884864342E+00+
*       1.6666683702E+01               0
GRID*               3466               04.7241030063E+011.0890504582E+00+
*       1.6666666667E+01               0
GRID*               3467               0-2.945825424E+017.4358020809E+01+
*       9.5570982894E+00               0
GRID*               3468               0-3.181135952E+017.6952747662E+01+
*       4.9999493727E+00               0
GRID*               3469               08.1441210611E+011.1970178851E+01+
*       1.5203821352E+01               0
GRID*               3470               07.6475452287E+011.3522005172E+01+
*       1.5203821352E+01               0
GRID*               3471               07.6932353971E+018.8254936298E+00+
*       1.5203821352E+01               0
GRID*               3472               0-4.058473555E+017.2510964983E+01+
*       4.9999346538E+00               0
GRID*               3473               03.3026637739E+015.6950546731E+01+
*       8.0314533046E+00               0
GRID*               3474               03.4783477916E+015.5356258681E+01+
*       3.3333333332E+00               0
GRID*               3475               03.5331325990E+015.3186761457E+01+
*       9.8846196457E+00               0
GRID*               3476               08.0084591011E+012.1124058862E+01+
*       4.9999752772E+00               0
GRID*               3477               08.0589375721E+011.6892382100E+01+
*       1.0203796630E+01               0
GRID*               3478               08.0589395726E+011.6892308941E+01+
*       5.2038213524E+00               0
GRID*               3479               03.6982282253E+01-4.119219854E+01+
*       1.9699539641E+00               0
GRID*               3480               03.8514867483E+01-4.213805380E+01+
*       7.8720721954E+00               0
GRID*               3481               03.1898856795E+01-3.491871574E+01+
*       1.4571553360E+01               0
GRID*               3482               03.6726068605E+017.4853684314E+01+
*       1.5000059301E+01               0
GRID*               3483               03.5330076917E+017.0809536354E+01+
*       9.6981792723E+00               0
GRID*               3484               05.7638341221E+017.8570189987E+00+
*       1.6666683710E+01               0
GRID*               3485               01.7091938251E+014.8516230497E+01+
*       1.6666666667E+01               0
GRID*               3486               01.3970450792E+014.6458100596E+01+
*       1.3533349685E+01               0
GRID*               3487               01.2608217976E+014.9144191090E+01+
*       1.4831110168E+01               0
GRID*               3488               0-3.258732217E+01-5.375180170E+01+
*       1.6666683702E+01               0
GRID*               3489               04.2136952124E+019.0110226664E+00+
*       3.6470420442E+00               0
GRID*               3490               06.4080930702E+001.6298481259E+01+
*       1.8985657202E+01               0
GRID*               3491               07.6560604102E+011.3476729597E+01+
*       5.2038213524E+00               0
GRID*               3492               08.2049034906E+011.1480865388E+01+
*       4.9999927672E+00               0
GRID*               3493               08.1441207084E+011.1970200664E+01+
*       1.0203814120E+01               0
GRID*               3494               01.4751950859E+012.0859982401E+01+
*       2.2054224275E+01               0
GRID*               3495               01.3961904288E+011.8536870622E+01+
*       2.3720891259E+01               0
GRID*               3496               01.1205632973E+011.9779298626E+01+
*       2.4699929728E+01               0
GRID*               3497               0-1.067348236E+01-1.396920145E+01+
*       2.7142876823E+01               0
GRID*               3498               0-8.240466337E+00-1.559486990E+01+
*       2.7142860344E+01               0
GRID*               3499               0-1.531339930E+011.7542635315E+01+
*       -5.616106480E+00               0
GRID*               3500               0-5.623850711E+001.7521359809E+01+
*       9.3718884713E+00               0
GRID*               3501               06.3513956366E+019.7893761936E+00+
*       3.8296685364E+00               0
GRID*               3502               06.3013817377E+017.1787367878E+00+
*       7.1629848234E+00               0
GRID*               3503               02.4466836020E+011.0264754891E+01+
*       1.9128912298E+01               0
GRID*               3504               01.7376048370E+01-1.514392897E+01+
*       -6.204458894E+00               0
GRID*               3505               0-5.234322473E+01-8.678640025E+00+
*       1.6666683710E+01               0
GRID*               3506               0-2.119637082E+012.5243498164E-01+
*       -7.613571853E+00               0
GRID*               3507               0-1.728006451E+011.6839178924E+00+
*       -7.142873122E+00               0
GRID*               3508               0-1.697724320E+01-1.927128253E+00+
*       -7.142873122E+00               0
GRID*               3509               02.8433201302E+01-5.563091629E+01+
*       1.6666666666E+01               0
GRID*               3510               02.8780719055E+01-5.934171089E+01+
*       1.5248688349E+01               0
GRID*               3511               04.7754394249E+01-5.707365219E+00+
*       3.3333162870E+00               0
GRID*               3512               04.7669792987E+01-7.321353355E+00+
*       7.3354908104E+00               0
GRID*               3513               05.1158673831E+01-7.146927532E+00+
*       3.3333162870E+00               0
GRID*               3514               05.1694765216E+01-7.664306819E+00+
*       1.6666683702E+01               0
GRID*               3515               05.0379215208E+016.3301677928E+00+
*       3.3333333333E+00               0
GRID*               3516               06.1664740308E+01-1.661795454E+01+
*       8.8943665067E+00               0
GRID*               3517               06.1500075300E+01-1.039775201E+01+
*       7.9755147803E+00               0
GRID*               3518               04.5825748886E+01-3.421073989E+00+
*       8.9783283491E+00               0
GRID*               3519               05.0633942270E+01-1.570659875E+01+
*       1.6023207265E+01               0
GRID*               3520               0-2.258861449E+015.4349521130E+01+
*       1.6666683702E+01               0
GRID*               3521               0-3.363799451E+014.2476443021E+01+
*       1.6666683702E+01               0
GRID*               3522               0-3.202571243E+014.0300771614E+01+
*       1.3873070965E+01               0
GRID*               3523               01.4609350849E+01-1.988358911E+01+
*       2.5050401510E+01               0
GRID*               3524               02.2726610540E+01-7.006753916E+00+
*       -5.260926033E+00               0
GRID*               3525               02.0304002892E+01-6.049867733E+00+
*       -5.260926033E+00               0
GRID*               3526               01.0782255304E+01-1.391579999E+01+
*       2.7142852512E+01               0
GRID*               3527               09.0478914380E+00-1.777606258E+01+
*       2.7859118138E+01               0
GRID*               3528               0-5.138381756E+017.6759890157E+00+
*       1.3333316287E+01               0
GRID*               3529               0-5.925728620E+01-7.272673278E+00+
*       1.6666683702E+01               0
GRID*               3530               0-6.330483519E+017.1982847311E+00+
*       1.2080748420E+01               0
GRID*               3531               0-6.092526628E+019.0244667786E+00+
*       8.7473980533E+00               0
GRID*               3532               0-6.092483080E+019.0245241041E+00+
*       1.2080765464E+01               0
GRID*               3533               0-6.482173635E+013.2047418815E+00+
*       1.6666666667E+01               0
GRID*               3534               0-5.228047994E+019.8660655007E+00+
*       7.8156238808E+00               0
GRID*               3535               0-5.228004446E+019.8661228262E+00+
*       1.1148991291E+01               0
GRID*               3536               01.4063228694E+01-8.271304504E+01+
*       1.4999980270E+01               0
GRID*               3537               0-7.529118276E+011.2949526012E+01+
*       4.4854561368E+00               0
GRID*               3538               0-7.668217235E+015.7939831094E+00+
*       4.8942649209E+00               0
GRID*               3539               0-7.344563732E+019.4660253442E+00+
*       9.3797210577E+00               0
GRID*               3540               0-8.052741932E+018.6162760504E+00+
*       9.8942800561E+00               0
GRID*               3541               02.0947784962E+014.3221033556E+00+
*       2.5939865256E+01               0
GRID*               3542               01.8883205597E+019.2447749294E+00+
*       2.6450944413E+01               0
GRID*               3543               02.1552561318E+01-5.481584455E+01+
*       3.3333333332E+00               0
GRID*               3544               02.0165752817E+01-5.116545477E+01+
*       3.3333333332E+00               0
GRID*               3545               02.2771100630E+01-5.914399692E+01+
*       5.2297810476E+00               0
GRID*               3546               02.5461857027E+01-5.472423493E+01+
*       3.3333333332E+00               0
GRID*               3547               02.6496257431E+01-5.667413078E+01+
*       5.1481338575E+00               0
GRID*               3548               0-5.415551953E+018.8240654555E+00+
*       1.6666683710E+01               0
GRID*               3549               0-2.984724169E+01-6.676920170E+01+
*       1.4941281740E+01               0
GRID*               3550               02.7485417043E+01-6.363738509E+01+
*       1.5248688349E+01               0
GRID*               3551               02.3475501484E+015.4589772026E+00+
*       2.5939865256E+01               0
GRID*               3552               0-6.330483519E+017.1982847311E+00+
*       8.7474150868E+00               0
GRID*               3553               0-6.391378855E+011.7367677983E+00+
*       7.5756912668E+00               0
GRID*               3554               0-3.517351255E+014.8092119052E+01+
*       1.6666666667E+01               0
GRID*               3555               0-5.651504230E+011.0366739687E+01+
*       1.1751321763E+01               0
GRID*               3556               0-6.295833868E+011.2118005251E+00+
*       3.3333333333E+00               0
GRID*               3557               0-6.660601062E+01-6.600989266E+00+
*       3.2372701106E+00               0
GRID*               3558               0-2.141734223E+01-5.419522060E+01+
*       1.6666666667E+01               0
GRID*               3559               0-2.664010723E+002.8950372525E+01+
*       8.2183064923E+00               0
GRID*               3560               0-2.340190075E+01-7.176148057E+01+
*       1.6819845744E+01               0
GRID*               3561               03.5837093272E+01-7.522395613E+01+
*       1.4999940697E+01               0
GRID*               3562               0-4.803016200E+00-1.640176415E+01+
*       -7.142867988E+00               0
GRID*               3563               0-8.251638782E+00-1.525798272E+01+
*       -7.142867988E+00               0
GRID*               3564               0-1.076599898E+011.3278718642E+01+
*       -7.142876823E+00               0
GRID*               3565               03.0708714725E+00-5.411517714E+01+
*       1.0543862660E+01               0
GRID*               3566               01.7834811044E+00-5.616213379E+01+
*       1.5382930570E+01               0
GRID*               3567               0-3.693454679E+015.8278866743E+01+
*       1.4676489347E+01               0
GRID*               3568               0-7.348659699E+01-4.721229062E+00+
*       4.7479663947E+00               0
GRID*               3569               0-3.146097564E+015.6166441581E+01+
*       1.1343173057E+01               0
GRID*               3570               0-3.612504514E+014.6511967028E+01+
*       3.3333333333E+00               0
GRID*               3571               05.7052176943E+002.3843703219E+01+
*       2.7472242788E+01               0
GRID*               3572               03.9528809907E+014.5653114082E+01+
*       1.1753306409E+01               0
GRID*               3573               03.6108180800E+015.0288586951E+01+
*       1.3217952979E+01               0
GRID*               3574               02.0976905224E+015.1776807489E+01+
*       3.3333333333E+00               0
GRID*               3575               0-4.288341463E+013.0954041478E+01+
*       1.3736371474E+01               0
GRID*               3576               0-3.396469171E+013.9359633806E+01+
*       1.7206387255E+01               0
GRID*               3577               0-2.865571025E+014.0741680325E+01+
*       1.6666683710E+01               0
GRID*               3578               0-8.259144721E+017.2236405272E+00+
*       1.5000001950E+01               0
GRID*               3579               0-8.299307614E+012.5362338597E+00+
*       1.5000001950E+01               0
GRID*               3580               0-4.168372412E+012.1374061893E+01+
*       1.5781701023E+01               0
GRID*               3581               0-3.693849842E+012.3531426730E+01+
*       1.5573864733E+01               0
GRID*               3582               0-4.208863038E+012.5423389129E+01+
*       1.5781701023E+01               0
GRID*               3583               0-3.247753568E+01-3.733441088E+01+
*       1.5133011592E+01               0
GRID*               3584               01.6575083180E+01-5.168452174E+00+
*       -7.142875375E+00               0
GRID*               3585               0-2.289325954E+013.8422245630E+01+
*       1.6666683710E+01               0
GRID*               3586               02.1838070932E+011.0259016258E+01+
*       -6.606771332E+00               0
GRID*               3587               02.9474642019E+01-3.762278596E+01+
*       1.1238220026E+01               0
GRID*               3588               02.9474642014E+01-3.762278596E+01+
*       7.9048866933E+00               0
GRID*               3589               03.2373105458E+01-3.839855494E+01+
*       7.9048866928E+00               0
GRID*               3590               02.9554291269E+013.9109142957E+01+
*       3.3333333332E+00               0
GRID*               3591               03.3376382973E+00-2.626607095E+01+
*       -5.932524927E+00               0
GRID*               3592               09.1187301460E+00-8.342393309E+01+
*       1.4999995796E+01               0
GRID*               3593               0-9.198354818E+008.3699402534E+01+
*       1.4999989145E+01               0
GRID*               3594               02.8707837887E+01-5.921079928E+01+
*       5.2486883494E+00               0
GRID*               3595               01.6996719776E+01-4.526105848E+00+
*       2.7142870543E+01               0
GRID*               3596               01.5447615316E+01-8.488395313E+00+
*       2.7142870543E+01               0
GRID*               3597               0-4.613690193E+01-6.829641452E+00+
*       1.2854437734E+01               0
GRID*               3598               0-8.140417948E+01-1.619803064E+01+
*       4.9999849279E+00               0
GRID*               3599               0-8.320324393E+012.6729073841E+00+
*       5.0000019497E+00               0
GRID*               3600               0-8.037813322E+012.1673437889E+01+
*       1.5000035276E+01               0
GRID*               3601               0-8.150965010E+011.6807923088E+01+
*       1.5000015135E+01               0
GRID*               3602               06.4389928875E+00-1.609262599E+01+
*       2.7859118138E+01               0
GRID*               3603               03.5690874843E+00-1.666354905E+01+
*       2.5001992912E+01               0
GRID*               3604               0-4.114350042E+01-3.614071448E+01+
*       6.3103805687E+00               0
GRID*               3605               02.1923543608E+01-8.103198409E+01+
*       4.9999802698E+00               0
GRID*               3606               08.0084414904E+012.1077519898E+01+
*       1.4999975277E+01               0
GRID*               3607               07.5447815464E+011.8151202672E+01+
*       1.5203821352E+01               0
GRID*               3608               08.0589395726E+011.6892308941E+01+
*       1.5203821352E+01               0
GRID*               3609               02.0012031618E+015.2348476580E+01+
*       1.6666666667E+01               0
GRID*               3610               04.0443031366E+016.5536095681E+01+
*       1.6296153246E+01               0
GRID*               3611               04.1144092321E+017.2522533765E+01+
*       1.5000067638E+01               0
GRID*               3612               0-2.470736335E+017.5901594247E+01+
*       9.5571190485E+00               0
GRID*               3613               0-2.832133081E+017.9283692511E+01+
*       4.9999493727E+00               0
GRID*               3614               0-2.357043992E+018.0827265949E+01+
*       4.9999701318E+00               0
GRID*               3615               0-4.763679726E+012.7428345049E+00+
*       1.6666683702E+01               0
GRID*               3616               0-2.697711984E+00-8.102543178E+01+
*       1.0010944701E+01               0
GRID*               3617               03.6754291415E-01-8.336028476E+01+
*       1.5000000504E+01               0
GRID*               3618               0-6.576665029E+015.0294392065E+01+
*       5.0000609430E+00               0
GRID*               3619               0-2.426352061E+01-7.441647141E+01+
*       4.4121686364E+00               0
GRID*               3620               0-2.832091959E+01-7.815633666E+01+
*       5.0000506937E+00               0
GRID*               3621               0-1.738162432E+015.4078535440E+01+
*       1.6666683702E+01               0
GRID*               3622               0-2.043002034E+015.0462808375E+01+
*       1.6666683702E+01               0
GRID*               3623               02.7817859941E+017.8238794858E+01+
*       5.0000405288E+00               0
GRID*               3624               02.7470840709E+017.2366489217E+01+
*       5.1498424262E+00               0
GRID*               3625               03.6887507428E+017.4470110023E+01+
*       5.0000593009E+00               0
GRID*               3626               01.7205285150E+01-7.986288972E+01+
*       4.9999802698E+00               0
GRID*               3627               02.3903958045E+015.8168539282E+01+
*       1.7935368692E+01               0
GRID*               3628               02.4798095759E+015.4589405056E+01+
*       1.7935368692E+01               0
GRID*               3629               07.5465449524E+01-2.642460686E+01+
*       3.4386425307E+00               0
GRID*               3630               02.0891255149E+01-4.331248693E+01+
*       1.6666666667E+01               0
GRID*               3631               07.5221837441E+013.4973120415E+01+
*       1.4999937263E+01               0
GRID*               3632               0-2.695061582E+01-3.726217835E+01+
*       5.1330115921E+00               0
GRID*               3633               0-2.622499995E+01-4.033563039E+01+
*       3.3333162997E+00               0
GRID*               3634               0-7.536082679E+01-3.468240637E+01+
*       4.9999447778E+00               0
GRID*               3635               0-7.623186370E+012.8917579419E+01+
*       5.0000552809E+00               0
GRID*               3636               0-2.345286237E+01-4.148364945E+01+
*       3.3333162870E+00               0
GRID*               3637               0-6.084334212E+013.3263737185E+01+
*       5.3701142806E+00               0
GRID*               3638               0-7.293019574E+014.2021252567E+01+
*       1.5000067061E+01               0
GRID*               3639               05.4272904749E+013.4257746482E+01+
*       6.4405280641E+00               0
GRID*               3640               07.4041382361E+01-3.921852144E+01+
*       1.5000062736E+01               0
GRID*               3641               01.6674571794E+011.7144567038E+01+
*       2.6450944413E+01               0
GRID*               3642               01.8732709016E+011.5253375803E+01+
*       2.6450944413E+01               0
GRID*               3643               01.9281840630E+01-4.855712271E+01+
*       1.6666666667E+01               0
GRID*               3644               01.8392782337E+01-4.921820099E+01+
*       1.1868763102E+01               0
GRID*               3645               0-3.639695344E+017.4090889312E+01+
*       1.4999934654E+01               0
GRID*               3646               0-4.003647331E+017.2749519344E+01+
*       1.5518371635E+01               0
GRID*               3647               0-4.486248425E+016.9931470949E+01+
*       4.9999351707E+00               0
GRID*               3648               0-3.185300379E+017.6165959503E+01+
*       1.4999949373E+01               0
GRID*               3649               0-2.692700331E+017.7335739608E+01+
*       1.4999949373E+01               0
GRID*               3650               0-3.669333002E+01-6.777597757E+01+
*       4.9412817401E+00               0
GRID*               3651               0-4.034286938E+01-7.265256485E+01+
*       5.0000653731E+00               0
GRID*               3652               0-4.462054480E+01-7.007294975E+01+
*       5.0000647793E+00               0
GRID*               3653               02.6680846412E+01-5.847967062E+01+
*       1.3050385723E+01               0
GRID*               3654               02.4416147481E+01-6.126909467E+01+
*       1.7801697374E+01               0
GRID*               3655               02.5711449492E+01-5.697342047E+01+
*       1.7801697374E+01               0
GRID*               3656               0-7.867300031E+01-2.535729601E+01+
*       1.4999964799E+01               0
GRID*               3657               02.7843294728E+01-3.512224102E+01+
*       1.4896434939E+01               0
GRID*               3658               0-7.116980530E+01-4.331083615E+01+
*       4.9999329501E+00               0
GRID*               3659               0-7.022945874E+014.6223486823E+01+
*       1.5000060943E+01               0
GRID*               3660               02.7538535519E+01-5.831129253E+01+
*       1.0396822207E+01               0
GRID*               3661               04.4349611502E+01-7.019130178E+01+
*       4.9999323600E+00               0
GRID*               3662               04.5376605614E+016.3029545590E+01+
*       6.2961532462E+00               0
GRID*               3663               04.6077666569E+017.0015983675E+01+
*       5.0000676378E+00               0
GRID*               3664               05.0201108269E+016.7196446204E+01+
*       5.0000553263E+00               0
GRID*               3665               03.2472848903E+017.6426448766E+01+
*       5.0000593009E+00               0
GRID*               3666               06.8818399338E+01-4.636282113E+01+
*       5.0000669452E+00               0
GRID*               3667               03.6642405047E+014.2766931089E+01+
*       1.0324873845E+01               0
GRID*               3668               03.7144692525E+014.5298344281E+01+
*       1.6666666667E+01               0
GRID*               3669               0-5.266155066E+016.4490322016E+01+
*       4.9999624633E+00               0
GRID*               3670               0-4.583677885E+01-6.073041215E+01+
*       5.3384029388E+00               0
GRID*               3671               0-4.806275267E+01-6.722974087E+01+
*       5.0000647793E+00               0
GRID*               3672               0-5.201842663E+01-6.417937338E+01+
*       5.0000373613E+00               0
GRID*               3673               02.4828635344E+015.6386594771E+01+
*       3.3333333337E+00               0
GRID*               3674               02.3097142503E+015.3897837845E+01+
*       3.3333333337E+00               0
GRID*               3675               03.6024233437E+015.0020980199E+01+
*       3.3333333332E+00               0
GRID*               3676               02.6333328659E+01-5.476887602E+01+
*       1.4468364040E+01               0
GRID*               3677               0-6.351230211E+01-5.487837216E+01+
*       4.9999752289E+00               0
GRID*               3678               01.7376143158E+012.5101306912E+00+
*       2.7142857143E+01               0
GRID*               3679               01.6805095429E+015.3804120918E+00+
*       2.7142875375E+01               0
GRID*               3680               06.0379841535E+015.5451173988E+01+
*       1.0672025614E+01               0
GRID*               3681               06.2695905348E+015.4058044272E+01+
*       4.9999524692E+00               0
GRID*               3682               05.3976196400E+016.3925325446E+01+
*       5.0000090589E+00               0
GRID*               3683               04.9996617616E+016.0307399039E+01+
*       5.6720731450E+00               0
GRID*               3684               0-3.142767961E+014.1890105022E+01+
*       1.6666683702E+01               0
GRID*               3685               02.8360320129E+01-5.550000469E+01+
*       3.3333333332E+00               0
GRID*               3686               03.2373105456E+01-3.839855494E+01+
*       1.1238220026E+01               0
GRID*               3687               03.6078366529E+01-4.166744302E+01+
*       1.2568784898E+01               0
GRID*               3688               03.4739471946E+01-4.247910999E+01+
*       1.6666666666E+01               0
GRID*               3689               05.2202993469E+01-6.439975559E+01+
*       4.9999446713E+00               0
GRID*               3690               06.5834982903E+014.9655119866E+01+
*       4.5530837221E+00               0
GRID*               3691               05.8930260643E+01-1.131868126E+01+
*       3.2714372542E+00               0
GRID*               3692               06.2724696765E+01-5.417067196E+01+
*       1.5000047529E+01               0
GRID*               3693               0-4.130329875E+015.8155391560E+01+
*       4.1588390261E+00               0
GRID*               3694               0-3.851079682E+015.6173213614E+01+
*       4.1588390261E+00               0
GRID*               3695               03.4955201800E+01-4.675674678E+01+
*       1.9699539641E+00               0
GRID*               3696               03.4178347523E+01-4.385857185E+01+
*       1.9699539641E+00               0
GRID*               3697               03.4178347532E+01-4.385857186E+01+
*       5.3032872973E+00               0
GRID*               3698               01.8484623682E+018.0964087381E+01+
*       5.0000197291E+00               0
GRID*               3699               0-6.491900639E+014.2919122593E+01+
*       1.5270538376E+01               0
GRID*               3700               01.6842167456E+01-9.570692952E+00+
*       2.4237091388E+01               0
GRID*               3701               06.1964048696E+012.5637403395E+00+
*       3.3333162870E+00               0
GRID*               3702               06.3414355357E+015.5320894627E+00+
*       4.2034602195E+00               0
GRID*               3703               06.2914216368E+012.9214500569E+00+
*       7.5367765065E+00               0
GRID*               3704               03.4545781301E+01-4.072158776E+01+
*       3.3333333332E+00               0
GRID*               3705               08.2705965831E+011.8424611929E+00+
*       1.5000000000E+01               0
GRID*               3706               08.2420784774E+016.8296294202E+00+
*       1.4999992767E+01               0
GRID*               3707               01.9347510455E+014.5928410253E+01+
*       3.3333333333E+00               0
GRID*               3708               0-1.942020653E-011.9669601547E+01+
*       2.6620197707E+01               0
GRID*               3709               05.9347107393E+01-5.785076585E+01+
*       1.4999990939E+01               0
GRID*               3710               03.2722893557E+015.9233548632E+01+
*       1.0417248033E+01               0
GRID*               3711               03.1170828575E+015.7050850253E+01+
*       1.5719128062E+01               0
GRID*               3712               02.7808031335E+015.8981722479E+01+
*       1.2077617257E+01               0
GRID*               3713               0-6.910116624E+01-2.874982299E+01+
*       1.4057138179E+01               0
GRID*               3714               0-7.699435284E+01-3.006215549E+01+
*       1.4999944778E+01               0
GRID*               3715               0-7.181336001E+01-2.432366033E+01+
*       1.4916388185E+01               0
GRID*               3716               0-3.617500661E+013.9945971806E+01+
*       1.7206387255E+01               0
GRID*               3717               02.2677858474E+015.2468374697E+01+
*       1.4602035359E+01               0
GRID*               3718               07.8677037065E+012.5870523086E+01+
*       1.4999954264E+01               0
GRID*               3719               07.7675743323E+012.1654855579E+01+
*       1.0082645275E+01               0
GRID*               3720               07.2534183065E+012.2913676150E+01+
*       1.5082669998E+01               0
GRID*               3721               03.5532576185E+014.9622738765E+01+
*       1.6666666667E+01               0
GRID*               3722               06.0242115548E+018.3268132211E+00+
*       1.0496352247E+01               0
GRID*               3723               0-6.604155844E+013.7179174584E+01+
*       1.6619211245E+01               0
GRID*               3724               01.0402652935E+01-2.013887091E+01+
*       2.7859118138E+01               0
GRID*               3725               0-6.062916410E+012.7724652199E+01+
*       4.9036894016E+00               0
GRID*               3726               05.5896641215E+01-5.236540093E+01+
*       1.4395727626E+01               0
GRID*               3727               0-2.003871624E+014.7488893578E+01+
*       1.6666666667E+01               0
GRID*               3728               04.1562408235E+01-1.170182952E+01+
*       1.4002174523E+01               0
GRID*               3729               04.9195420791E+013.9146832009E+01+
*       1.5195889633E+01               0
GRID*               3730               0-3.112508082E+015.4132800463E+01+
*       1.6666683710E+01               0
GRID*               3731               03.9580707357E+013.3763790564E+01+
*       1.3658207178E+01               0
GRID*               3732               03.7401789644E+013.8385350185E+01+
*       1.3658207178E+01               0
GRID*               3733               0-8.301647202E+01-6.841097876E+00+
*       1.4999998077E+01               0
GRID*               3734               09.6345919457E+008.2687634884E+01+
*       1.5000004203E+01               0
GRID*               3735               0-4.986254071E+008.3064434618E+01+
*       4.9999995107E+00               0
GRID*               3736               02.2955594226E+00-8.088281864E+01+
*       1.0010939994E+01               0
GRID*               3737               05.4439188159E+013.9375182443E+01+
*       1.4951612480E+01               0
GRID*               3738               0-4.362321252E+00-8.274400317E+01+
*       5.0000005035E+00               0
GRID*               3739               04.6344048396E+015.8221217832E+01+
*       6.2961532462E+00               0
GRID*               3740               03.2217558076E+014.1106579585E+01+
*       3.3333333332E+00               0
GRID*               3741               03.1438101313E+015.4157834492E+01+
*       9.0524613951E+00               0
GRID*               3742               02.8539638247E+015.4933603841E+01+
*       1.2385794729E+01               0
GRID*               3743               03.1438101311E+015.4157834494E+01+
*       1.2385794728E+01               0
GRID*               3744               0-1.906812891E+01-1.232642013E+01+
*       -6.514352435E+00               0
GRID*               3745               0-2.394463092E+01-7.439152592E+01+
*       1.4412168636E+01               0
GRID*               3746               0-2.325118278E+01-7.967509923E+01+
*       1.5000029943E+01               0
GRID*               3747               07.8677213171E+012.5917062049E+01+
*       4.9999542640E+00               0
GRID*               3748               0-1.410235718E+01-1.169804660E+01+
*       6.4333090637E+00               0
GRID*               3749               0-6.391378855E+011.7367677983E+00+
*       1.0909024600E+01               0
GRID*               3750               0-6.713192864E+011.9356036577E+01+
*       4.4854561368E+00               0
GRID*               3751               06.8196505855E+011.7098029586E+01+
*       8.9123385343E+00               0
GRID*               3752               03.6078366531E+01-4.166744302E+01+
*       9.2354515645E+00               0
GRID*               3753               02.8539638242E+015.4933603839E+01+
*       9.0524613955E+00               0
GRID*               3754               0-1.990084854E+01-5.792295978E+01+
*       4.4451961426E+00               0
GRID*               3755               0-2.363852696E+01-5.498696021E+01+
*       3.3333162998E+00               0
GRID*               3756               0-2.059861289E+01-5.468967938E+01+
*       7.7785294760E+00               0
GRID*               3757               0-2.125895792E+01-5.316077826E+01+
*       3.3333333333E+00               0
GRID*               3758               0-7.018608763E+013.4105033341E+01+
*       1.6619211245E+01               0
GRID*               3759               03.0664629533E+015.4670563660E+01+
*       3.3333333332E+00               0
GRID*               3760               06.7953330451E+014.4574089436E+00+
*       4.2034602195E+00               0
GRID*               3761               0-9.865199407E+00-6.243017861E+01+
*       6.4298861027E+00               0
GRID*               3762               0-1.150478362E+01-5.692020213E+01+
*       4.8404912101E+00               0
GRID*               3763               03.5027581808E+015.5469763357E+01+
*       1.2270414374E+01               0
GRID*               3764               01.9764128544E+012.8550728536E+01+
*       1.8071587108E+01               0
GRID*               3765               06.5118130538E+011.8327641616E+00+
*       4.2034602195E+00               0
GRID*               3766               02.0978331332E+01-4.129393244E+00+
*       2.5086337641E+01               0
GRID*               3767               04.3970766940E+013.0804401607E+01+
*       1.4198834995E+01               0
GRID*               3768               02.0000419864E+014.6968715487E+01+
*       1.6666666667E+01               0
GRID*               3769               01.8000594074E+014.6822540649E+00+
*       2.3082740632E+01               0
GRID*               3770               01.9502274608E+002.3701435002E+01+
*       -6.646809727E+00               0
GRID*               3771               05.4181898557E+001.9166557455E+01+
*       -7.142865016E+00               0
GRID*               3772               01.5831812564E+00-1.755908176E+01+
*       2.7142874774E+01               0
GRID*               3773               0-9.397038805E-012.3959209081E+01+
*       -6.646809727E+00               0
GRID*               3774               02.2677858474E+015.2468374697E+01+
*       1.7935368692E+01               0
GRID*               3775               07.7202225420E+018.7658812765E+00+
*       5.2038213524E+00               0
GRID*               3776               0-6.835145666E+01-1.989496328E+01+
*       1.4916388185E+01               0
GRID*               3777               02.0777274304E+014.4070540614E+01+
*       1.6666666666E+01               0
GRID*               3778               08.1717270149E+001.8249057087E+01+
*       -7.142865016E+00               0
GRID*               3779               05.9007859828E+002.1473645844E+01+
*       -5.476198270E+00               0
GRID*               3780               09.1732253264E+002.0382716674E+01+
*       -5.476198270E+00               0
GRID*               3781               01.0639184853E+011.6721459985E+01+
*       -7.142865016E+00               0
GRID*               3782               02.2695660974E+013.8353233683E+01+
*       1.6666666666E+01               0
GRID*               3783               0-1.945798387E+01-4.668013626E+01+
*       3.3333162870E+00               0
GRID*               3784               0-1.906641268E+01-4.965439985E+01+
*       3.3333333333E+00               0
GRID*               3785               0-5.152869985E+001.6581286704E+01+
*       -7.142860344E+00               0
GRID*               3786               08.0750349972E+001.5083114074E+01+
*       -7.142865016E+00               0
GRID*               3787               01.0297637482E+013.9346524717E+01+
*       1.3821301703E+01               0
GRID*               3788               0-5.966147325E+016.3081364630E+00+
*       3.3333162998E+00               0
GRID*               3789               06.2605087609E+01-4.379953060E+01+
*       4.6193691480E+00               0
GRID*               3790               07.4239499555E+01-2.959091953E+01+
*       1.6109947446E+01               0
GRID*               3791               01.8205061291E+017.8437672559E+01+
*       1.0194892973E+01               0
GRID*               3792               0-1.068473460E+01-1.363212259E+01+
*       -7.142867764E+00               0
GRID*               3793               0-1.372199819E+01-1.108452893E+01+
*       -8.000991349E-01               0
GRID*               3794               0-1.087368896E+01-1.370636451E+01+
*       1.2421198546E+00               0
GRID*               3795               0-7.162802028E+011.0537028416E+01+
*       4.4854561368E+00               0
GRID*               3796               0-6.764003436E+011.2972873102E+01+
*       5.4140817535E+00               0
GRID*               3797               0-7.348981618E+013.1460676923E+01+
*       1.6619211245E+01               0
GRID*               3798               03.4220205737E+013.6842242880E+01+
*       8.2116248213E+00               0
GRID*               3799               01.7146130909E+01-2.298170774E+00+
*       -7.142857143E+00               0
GRID*               3800               01.0301130721E+01-1.462205499E+01+
*       -1.231238051E+00               0
GRID*               3801               0-1.976559562E+012.9688300705E+00+
*       -4.692778956E+00               0
GRID*               3802               0-1.691454353E+014.1552105502E+00+
*       -1.835636491E+00               0
GRID*               3803               01.2115351936E+01-5.076868347E+01+
*       1.5202096436E+01               0
GRID*               3804               01.3415490489E+01-5.477972895E+01+
*       1.5202096436E+01               0
GRID*               3805               0-8.109692396E+013.6535125603E+00+
*       9.8942668706E+00               0
GRID*               3806               0-1.095160840E+01-1.673231694E+01+
*       -4.472133445E+00               0
GRID*               3807               0-7.353140787E+01-1.984639740E+01+
*       1.4916388185E+01               0
GRID*               3808               0-2.152607277E+00-1.767716073E+01+
*       -2.494830086E+00               0
GRID*               3809               0-1.932836678E+00-1.697268503E+01+
*       -7.142862523E+00               0
GRID*               3810               0-4.221345667E+008.4126778580E+01+
*       1.4999999511E+01               0
GRID*               3811               0-3.474352465E+00-2.497531010E+01+
*       -3.685300817E+00               0
GRID*               3812               0-5.745995303E+019.7008238184E+00+
*       3.3333162998E+00               0
GRID*               3813               01.3267408830E+01-1.078093013E+01+
*       -7.142858635E+00               0
GRID*               3814               06.4161462851E+01-1.548109439E+01+
*       4.7040775261E+00               0
GRID*               3815               08.8721827421E+00-1.446687119E+01+
*       2.7859118138E+01               0
GRID*               3816               0-1.604812080E+01-4.838310841E+01+
*       6.1373515867E+00               0
GRID*               3817               02.0318347027E+011.2731616623E+01+
*       -6.606771332E+00               0
GRID*               3818               01.3072264491E+011.5095770501E+01+
*       -7.142852512E+00               0
GRID*               3819               01.3294517649E+011.1163841124E+01+
*       -7.142852512E+00               0
GRID*               3820               01.0508114635E+011.3457424590E+01+
*       -7.142852512E+00               0
GRID*               3821               0-1.770830331E+01-5.441658137E+01+
*       4.4451961426E+00               0
GRID*               3822               01.3271521155E+01-7.456952338E+01+
*       4.8468028568E+00               0
GRID*               3823               0-1.524818023E+015.1121586361E+01+
*       8.1530929747E+00               0
GRID*               3824               01.7464618366E+011.9467678816E+01+
*       2.4784277428E+01               0
GRID*               3825               0-5.651547778E+011.0366682362E+01+
*       8.4179543526E+00               0
GRID*               3826               0-6.267607156E+01-4.702161282E+00+
*       3.3333162870E+00               0
GRID*               3827               0-8.202194257E+011.2186404017E+01+
*       1.5000015135E+01               0
GRID*               3828               0-5.352710332E+018.9230919695E+00+
*       3.3333162998E+00               0
GRID*               3829               03.0166093310E+01-3.973290790E+01+
*       3.3333333332E+00               0
GRID*               3830               08.1726388140E+016.9830324370E+00+
*       1.0203821352E+01               0
GRID*               3831               02.3608435671E+014.0751974577E+01+
*       3.3333333332E+00               0
GRID*               3832               02.4319174738E+016.1053624154E+01+
*       1.6358489195E+01               0
GRID*               3833               03.4337795234E+014.3227610007E+01+
*       3.3333333333E+00               0
GRID*               3834               02.1012252046E+015.7224012327E+01+
*       4.5963707387E+00               0
GRID*               3835               04.3048816770E+01-3.098761818E+01+
*       1.5350118911E+01               0
GRID*               3836               02.0195646480E+001.7505084609E+01+
*       2.7142862523E+01               0
GRID*               3837               05.9866526824E+001.8105672302E+01+
*       2.4615119741E+01               0
GRID*               3838               04.8895209385E+001.6934268677E+01+
*       2.7142876953E+01               0
GRID*               3839               06.2727816966E+01-6.338124988E+00+
*       1.1370744193E+01               0
GRID*               3840               08.1220879938E+01-2.040660961E+01+
*       3.4386425307E+00               0
GRID*               3841               01.6878932405E+014.4910585586E+01+
*       1.3533349685E+01               0
GRID*               3842               03.4054939712E+014.1696902677E+01+
*       1.6666666667E+01               0
GRID*               3843               0-2.244423134E+013.8437301765E+01+
*       1.1523785861E+01               0
GRID*               3844               0-2.196041491E+015.4568182210E+01+
*       3.3333162869E+00               0
GRID*               3845               0-3.923661176E+01-6.343175902E+01+
*       1.0279684679E+01               0
GRID*               3846               0-1.524791285E+015.1121237879E+01+
*       1.1486460390E+01               0
GRID*               3847               01.9069893439E+01-7.209321872E+01+
*       4.9730661906E+00               0
GRID*               3848               01.7816713333E+01-6.751283216E+01+
*       4.9730661906E+00               0
GRID*               3849               0-2.125700630E+015.5146237120E+01+
*       1.1428838111E+01               0
GRID*               3850               0-2.125727369E+015.5146585602E+01+
*       8.0954706957E+00               0
GRID*               3851               03.4522167894E+014.0645900669E+01+
*       1.0324873844E+01               0
GRID*               3852               03.4522167889E+014.0645900667E+01+
*       6.9915405113E+00               0
GRID*               3853               0-2.714339455E+015.7036073525E+01+
*       1.0480098805E+01               0
GRID*               3854               0-1.951171605E+018.1141828192E+01+
*       4.9999701318E+00               0
GRID*               3855               0-1.521967909E+011.8907979772E+01+
*       2.7257582419E+01               0
GRID*               3856               0-4.931868281E+01-5.906125194E+00+
*       1.6666683710E+01               0
GRID*               3857               01.7410763221E+017.1164948267E+01+
*       1.5194873244E+01               0
GRID*               3858               0-2.625518674E+016.6187949316E+01+
*       1.4557148917E+01               0
GRID*               3859               0-2.121201231E+016.6452359596E+01+
*       1.4896009302E+01               0
GRID*               3860               0-2.378146845E+013.9920817489E-01+
*       -7.613571853E+00               0
GRID*               3861               0-1.370577236E+01-1.109683822E+01+
*       2.7142876823E+01               0
GRID*               3862               0-4.716575594E+00-1.816247076E+01+
*       2.3687133960E+01               0
GRID*               3863               0-9.142384145E+00-1.604038210E+01+
*       2.4192951023E+01               0
GRID*               3864               01.5082587634E+01-4.814070768E+01+
*       1.5202096436E+01               0
GRID*               3865               01.0380423782E+01-4.699027613E+01+
*       1.5493628651E+01               0
GRID*               3866               03.5944294585E+00-4.240689919E+01+
*       3.9114278137E+00               0
GRID*               3867               0-3.907799076E+01-3.239975548E+01+
*       1.6310380569E+01               0
GRID*               3868               02.0723354717E+01-1.379265712E+01+
*       2.7094220845E+01               0
GRID*               3869               0-3.614477205E+01-4.679117004E+01+
*       3.1880576005E+00               0
GRID*               3870               0-4.112045692E+01-5.859806706E+00+
*       1.5898813754E+01               0
GRID*               3871               06.2342541536E+01-1.130107885E+01+
*       4.7040775261E+00               0
GRID*               3872               01.4856354410E+011.5081354746E+01+
*       2.6450944413E+01               0
GRID*               3873               01.7186271164E+011.2362388881E+01+
*       2.6450944413E+01               0
GRID*               3874               09.1643643854E+001.5056053256E+01+
*       1.8006618733E+01               0
GRID*               3875               0-1.533176094E+01-8.663554295E+00+
*       2.7142857535E+01               0
GRID*               3876               02.7267629866E+01-3.895713892E+01+
*       3.3333333337E+00               0
GRID*               3877               02.7377927796E+016.3424464942E+01+
*       1.6358489195E+01               0
GRID*               3878               02.4520366929E+016.9940700809E+01+
*       1.5149842426E+01               0
GRID*               3879               0-1.131590002E+011.3522662887E+01+
*       2.7142867764E+01               0
GRID*               3880               03.1267597915E+01-3.990812188E+01+
*       1.6666666666E+01               0
GRID*               3881               01.5936014710E+019.6049256388E+00+
*       2.3593819788E+01               0
GRID*               3882               01.4310343631E+011.2037941659E+01+
*       2.3593803048E+01               0
GRID*               3883               0-2.537725761E+01-4.459341546E-01+
*       1.3611782870E+01               0
GRID*               3884               0-4.724549323E+01-2.310802957E-01+
*       1.3333333333E+01               0
GRID*               3885               06.4086020217E+001.6298241751E+01+
*       1.6128462267E+01               0
GRID*               3886               0-4.698559979E+01-2.440921748E-01+
*       3.3333333333E+00               0
GRID*               3887               0-1.478416187E+01-1.104134201E+01+
*       2.4307757291E+01               0
GRID*               3888               0-4.836963046E+00-1.665983930E+01+
*       2.7142860344E+01               0
GRID*               3889               0-3.813364699E+00-2.096415433E+01+
*       2.6544273616E+01               0
GRID*               3890               0-1.966679830E+00-1.723072889E+01+
*       2.7142874774E+01               0
GRID*               3891               01.2106022907E+011.8566458478E+01+
*       -5.476198270E+00               0
GRID*               3892               09.3111581417E+004.4621712210E+01+
*       1.3821301703E+01               0
GRID*               3893               0-3.261154605E+001.7496753352E+01+
*       -7.220696038E-01               0
GRID*               3894               01.1962263642E+01-5.604210155E+01+
*       1.0711946534E+01               0
GRID*               3895               01.5108160995E+018.4980260431E+00+
*       2.7142875375E+01               0
GRID*               3896               07.8826855631E+00-2.135162669E+01+
*       2.7859118138E+01               0
GRID*               3897               0-2.019519600E+017.7148075320E+01+
*       5.8333711098E+00               0
GRID*               3898               03.7684645167E+013.9916057515E+01+
*       3.6582071781E+00               0
GRID*               3899               03.6642405047E+014.2766931089E+01+
*       6.9915405114E+00               0
GRID*               3900               01.7567641811E+01-1.656141877E+00+
*       2.7142857143E+01               0
GRID*               3901               0-4.363850068E+01-4.076021251E+00+
*       1.2565480421E+01               0
GRID*               3902               04.5589383380E+011.3399828949E+01+
*       4.9521779008E+00               0
GRID*               3903               04.1732410676E+011.4413558225E+01+
*       3.9699632997E+00               0
GRID*               3904               0-3.175148432E+01-4.040780561E+01+
*       1.6666683710E+01               0
GRID*               3905               01.0784257414E+012.1586459161E+01+
*       2.7472242788E+01               0
GRID*               3906               0-2.239690772E+001.7459306985E+01+
*       2.7142862523E+01               0
GRID*               3907               0-3.854407916E+012.9201500381E+01+
*       9.3102362076E+00               0
GRID*               3908               0-2.544079532E+01-4.480286598E+00+
*       2.5200338898E+01               0
GRID*               3909               0-5.184820651E+002.2247406901E+01+
*       2.6620197707E+01               0
GRID*               3910               0-1.325222213E+011.6955139191E+01+
*       2.7257582419E+01               0
GRID*               3911               01.3482489916E+011.0931042063E+01+
*       2.7142858635E+01               0
GRID*               3912               0-3.050157896E+00-2.410616732E+01+
*       2.6544273616E+01               0
GRID*               3913               0-2.007109312E+01-1.315469197E+01+
*       2.7164880467E+01               0
GRID*               3914               03.9365433582E+011.1027736621E+01+
*       3.9699632997E+00               0
GRID*               3915               0-3.195481946E+012.4924003716E+01+
*       5.5738647333E+00               0
GRID*               3916               0-5.075496586E+017.7750728552E+00+
*       3.3333162870E+00               0
GRID*               3917               0-1.410224823E+01-1.169816261E+01+
*       3.5761809414E+00               0
GRID*               3918               01.6380255902E+014.6048377287E+00+
*       -1.883358319E+00               0
GRID*               3919               01.3821792455E+01-1.092175034E+01+
*       2.7142852512E+01               0
GRID*               3920               01.8269882137E+011.4786685600E+01+
*       -6.606771332E+00               0
GRID*               3921               0-8.786568932E+001.5710671922E+01+
*       7.7769556405E+00               0
GRID*               3922               0-1.534757433E+01-8.651704759E+00+
*       -8.000610850E-01               0
GRID*               3923               0-1.587822162E+00-2.612708681E+01+
*       -3.951814322E-01               0
GRID*               3924               0-1.157540017E+01-1.441471365E+01+
*       2.4192967502E+01               0
GRID*               3925               0-1.111164443E-01-2.636018795E+01+
*       -5.932524927E+00               0
GRID*               3926               02.8369134479E+01-3.913235290E+01+
*       1.6666666667E+01               0
GRID*               3927               02.5419079953E+01-3.782631123E+01+
*       1.1563101606E+01               0
GRID*               3928               03.5516326216E+01-4.537728491E+01+
*       1.6666666667E+01               0
GRID*               3929               09.1648733369E+001.5055813747E+01+
*       1.5149423798E+01               0
GRID*               3930               02.5419079947E+01-3.782631123E+01+
*       8.2297682731E+00               0
GRID*               8185               0-4.945672226E+01-2.296100378E+00+
*       0.0000000000E+00               0
GRID*               8186               0-4.945672226E+01-2.296100378E+00+
*       2.0000000000E+01               0
GRID*               8184               0-2.195672226E+01-4.992749786E+01+
*       2.0000000000E+01               0
GRID*               8177               03.3295555115E+01-4.918431091E+01+
*       2.0000000000E+01               0
GRID*               8190               03.4076774597E+012.0946916580E+01+
*       2.0000000000E+01               0
GRID*               8179               03.3295555115E+014.6078483582E+01+
*       2.0000000000E+01               0
GRID*               8188               0-2.195672226E+014.5335296631E+01+
*       2.0000000000E+01               0
GRID*               8182               06.0543277740E+01-2.296100378E+00+
*       2.0000000000E+01               0
GRID*               8189               02.6044803619E+011.6009681702E+01+
*       2.6666666031E+01               0
GRID*               8192               01.6999900818E+01-2.437063408E+01+
*       -6.666666508E+00               0
GRID*               8194               01.4302916527E+01-2.050430679E+01+
*       -1.000000000E+01               0
GRID*               8193               02.0824871063E+01-3.314259338E+01+
*       0.0000000000E+00               0
GRID*               8191               02.2659420013E+011.2457120895E+01+
*       3.0000000000E+01               0
GRID*               8183               0-2.195672226E+01-4.992749786E+01+
*       0.0000000000E+00               0
GRID*               8187               0-2.195672226E+014.5335296631E+01+
*       0.0000000000E+00               0
GRID*               8178               03.3295555115E+01-4.918431091E+01+
*       0.0000000000E+00               0
GRID*               8180               03.3295555115E+014.6078483582E+01+
*       0.0000000000E+00               0
GRID*               8181               06.0543277740E+01-2.296100378E+00+
*       0.0000000000E+00               0
GRID*               7661               08.7500000000E+010.0000000000E+00+
*       1.0000000000E+01               0
GRID*               7662               08.7500000000E+010.0000000000E+00+
*       1.5000000000E+01               0
GRID*               7663               08.7500000000E+010.0000000000E+00+
*       5.0000000000E+00               0
GRID*               7664               03.3295555115E+01-4.918431091E+01+
*       1.3333333333E+01               0
GRID*               7665               03.3295555115E+01-4.918431091E+01+
*       6.6666666667E+00               0
GRID*               7666               03.3295555115E+01-4.918431091E+01+
*       1.6666666667E+01               0
GRID*               7667               03.3295555115E+01-4.918431091E+01+
*       1.0000000000E+01               0
GRID*               7668               03.3295555115E+01-4.918431091E+01+
*       3.3333333333E+00               0
GRID*               7669               03.3295555115E+014.6078483582E+01+
*       1.3333333333E+01               0
GRID*               7670               03.3295555115E+014.6078483582E+01+
*       6.6666666667E+00               0
GRID*               7671               03.3295555115E+014.6078483582E+01+
*       1.6666666667E+01               0
GRID*               7672               03.3295555115E+014.6078483582E+01+
*       1.0000000000E+01               0
GRID*               7673               03.3295555115E+014.6078483582E+01+
*       3.3333333333E+00               0
GRID*               7674               06.0543277740E+01-2.296100378E+00+
*       6.6666666667E+00               0
GRID*               7675               06.0543277740E+01-2.296100378E+00+
*       1.3333333333E+01               0
GRID*               7676               06.0543277740E+01-2.296100378E+00+
*       3.3333333333E+00               0
GRID*               7677               06.0543277740E+01-2.296100378E+00+
*       1.0000000000E+01               0
GRID*               7678               06.0543277740E+01-2.296100378E+00+
*       1.6666666667E+01               0
GRID*               7679               0-2.195672226E+01-4.992749786E+01+
*       6.6666666667E+00               0
GRID*               7680               0-2.195672226E+01-4.992749786E+01+
*       1.3333333333E+01               0
GRID*               7681               0-2.195672226E+01-4.992749786E+01+
*       3.3333333333E+00               0
GRID*               7682               0-2.195672226E+01-4.992749786E+01+
*       1.0000000000E+01               0
GRID*               7683               0-2.195672226E+01-4.992749786E+01+
*       1.6666666667E+01               0
GRID*               7684               0-4.945672226E+01-2.296100378E+00+
*       6.6666666667E+00               0
GRID*               7685               0-4.945672226E+01-2.296100378E+00+
*       1.3333333333E+01               0
GRID*               7686               0-4.945672226E+01-2.296100378E+00+
*       3.3333333333E+00               0
GRID*               7687               0-4.945672226E+01-2.296100378E+00+
*       1.0000000000E+01               0
GRID*               7688               0-4.945672226E+01-2.296100378E+00+
*       1.6666666667E+01               0
GRID*               7689               0-2.195672226E+014.5335296631E+01+
*       6.6666666667E+00               0
GRID*               7690               0-2.195672226E+014.5335296631E+01+
*       1.3333333333E+01               0
GRID*               7691               0-2.195672226E+014.5335296631E+01+
*       3.3333333333E+00               0
GRID*               7692               0-2.195672226E+014.5335296631E+01+
*       1.0000000000E+01               0
GRID*               7693               0-2.195672226E+014.5335296631E+01+
*       1.6666666667E+01               0
GRID*               7694               03.0060789108E+011.8478299141E+01+
*       2.3333333015E+01               0
GRID*               7695               02.4352111816E+011.4233401299E+01+
*       2.8333333015E+01               0
GRID*               7696               01.5000000000E+010.0000000000E+00+
*       2.4285714286E+01               0
GRID*               7697               01.5000000000E+010.0000000000E+00+
*       1.8571428571E+01               0
GRID*               7698               01.5000000000E+010.0000000000E+00+
*       1.2857142857E+01               0
GRID*               7699               01.5000000000E+010.0000000000E+00+
*       7.1428571429E+00               0
GRID*               7700               01.5000000000E+010.0000000000E+00+
*       1.4285714286E+00               0
GRID*               7701               01.5000000000E+010.0000000000E+00+
*       -4.285714286E+00               0
GRID*               7702               01.5000000000E+010.0000000000E+00+
*       2.7142857143E+01               0
GRID*               7703               01.5000000000E+010.0000000000E+00+
*       2.1428571429E+01               0
GRID*               7704               01.5000000000E+010.0000000000E+00+
*       1.5714285714E+01               0
GRID*               7705               01.5000000000E+010.0000000000E+00+
*       1.0000000000E+01               0
GRID*               7706               01.5000000000E+010.0000000000E+00+
*       4.2857142857E+00               0
GRID*               7707               01.5000000000E+010.0000000000E+00+
*       -1.428571429E+00               0
GRID*               7708               01.5000000000E+010.0000000000E+00+
*       -7.142857143E+00               0
GRID*               7709               01.8912385941E+01-2.875661373E+01+
*       -3.333333254E+00               0
GRID*               7710               01.5651408672E+01-2.243747044E+01+
*       -8.333333254E+00               0
$*
$* ELEMENT CARDS
$*
$*  NX mesh: 3d_mesh(1)
CTETRA         1       1       1    7698       2       3     256     257+
+            258     259     260     261
CTETRA         2       1    7699    7698    5551       1    7705    5833+
+           5832     262     256     263
CTETRA         3       1       1    7700       4       5     264     265+
+            266     267     268     269
CTETRA         4       1    5299    5589       6    5292     270     271+
+            272    5352     273     274
CTETRA         5       1       7       1       8       9     275     276+
+            277     278     279     280
CTETRA         6       1       1       9       3       8     279     281+
+            259     276     280     282
CTETRA         7       1       1      10      11       4     283     284+
+            285     266     286     287
CTETRA         8       1      11       1       3      10     285     259+
+            288     284     283     289
CTETRA         9       1       1    7905       9       5     290     291+
+            279     267     292     293
CTETRA        10       1      12      13      14      15     294     295+
+            296     297     298     299
CTETRA        11       1      12    7918      14      13     300     301+
+            296     294     302     295
CTETRA        12       1    5573      12    5588      15     303     304+
+           5803     305     297     306
CTETRA        13       1      12      16      17      18     307     308+
+            309     310     311     312
CTETRA        14       1      16      13      19      18     313     314+
+            315     311     316     317
CTETRA        15       1      13      12      16      20     294     307+
+            313     318     319     320
CTETRA        16       1    5551    5566      21    5567    5739     321+
+            322    5741    5740     323
CTETRA        17       1      22    4185      23      24     324     325+
+            326     327     328     329
CTETRA        18       1    4012      22      23      25     330     326+
+            331     332     333     334
CTETRA        19       1    4012    4013    4191      22    4887    4938+
+           4932     330     335     336
CTETRA        20       1    5406    5519    5518      26     337    5648+
+            338     339     340     341
CTETRA        21       1      22    4013    4191    7004     335    4938+
+            336     342     343     344
CTETRA        22       1      22    4190      27    7005     345     346+
+            347     348     349     350
CTETRA        23       1      22      28    4187    4184     351     352+
+            353     354     355    4945
CTETRA        24       1      22    4187      27    4190     353     356+
+            347     345    4935     346
CTETRA        25       1    6085      28    6099      25     357     358+
+           6418     359     360     361
CTETRA        26       1      28    6099      25      27     358     361+
+            360     362     363     364
CTETRA        27       1      29      30    6140      31     365     366+
+            367     368     369     370
CTETRA        28       1      29      32    6130    6126     371     372+
+            373     374     375    6574
CTETRA        29       1      29    6130      33    6139     373     376+
+            377     378    6603     379
CTETRA        30       1      29      30    4153      34     365     380+
+            381     382     383     384
CTETRA        31       1      35    6059    6060    6210     385    6917+
+            386     387    6916    6915
CTETRA        32       1      29      30    4157    4153     365     388+
+            389     381     380    4790
CTETRA        33       1      29    4148      33    4147     390     391+
+            377     392    4734     393
CTETRA        34       1    6050      36    6054      37     394     395+
+           6317     396     397     398
CTETRA        35       1    7068    6054    6050      36     399    6317+
+            400     401     395     394
CTETRA        36       1    7395    7068    6054    6050    7153     399+
+           6315    6303     400    6317
CTETRA        37       1      36    4068      37    4070     402     403+
+            397     404    4359     405
CTETRA        38       1    5406      26    5518      38     339     341+
+            338     406     407     408
CTETRA        39       1      35    6059      39    6060     385     409+
+            410     386    6917     411
CTETRA        40       1      36    4050      40    4068     412     413+
+            414     402    4361     415
CTETRA        41       1      36    7069    4050    7528     416     417+
+            412     418    7351    4358
CTETRA        42       1      36    7529    7069    7528     419    7352+
+            416     418    7554    7351
CTETRA        43       1      36      40    4050      41     414     413+
+            412     420     421     422
CTETRA        44       1      40    6056    6055      41     423    6325+
+            424     421     425     426
CTETRA        45       1      37      36    6054      40     397     395+
+            398     427     414     428
CTETRA        46       1    6054    6056    6055      40    6324    6325+
+           6326     428     423     424
CTETRA        47       1      42      40    6057    6055     429     430+
+            431     432     424    6331
CTETRA        48       1      42      43    6043    6057     433     434+
+            435     431     436    6329
CTETRA        49       1      42    6043    6035    6058     435    6272+
+            437     438    6339    6340
CTETRA        50       1      42    5241    4052      44     439     440+
+            441     442     443     444
CTETRA        51       1      42    4072      44    4052     445     446+
+            442     441    4373     444
CTETRA        52       1    6058      42      41    5236     438     447+
+            448     449     450     451
CTETRA        53       1      45      46    6121      47     452     453+
+            454     455     456     457
CTETRA        54       1      45      46    6117    6121     452     458+
+            459     454     453    6531
CTETRA        55       1      45    6126      34    6121     460     461+
+            462     454    6552     463
CTETRA        56       1      45      32    6126    6118     464     375+
+            460     465     466    6549
CTETRA        57       1      48      49      50      51     467     468+
+            469     470     471     472
CTETRA        58       1      52      53    6060      35     473     474+
+            475     476     477     386
CTETRA        59       1      48    7766      54      55     478     479+
+            480     481     482     483
CTETRA        60       1      48      51    7862    7765     470     484+
+            485     486     487    4980
CTETRA        61       1      56    5909    5914    5915     488    5919+
+            489     490    5921    5920
CTETRA        62       1      57    4105      58    3940     491     492+
+            493     494     495     496
CTETRA        63       1      57      59    4040    3939     497     498+
+            499     500     501     502
CTETRA        64       1      57      59    4104    4040     497     503+
+            504     499     498    4545
CTETRA        65       1      60      57      61    6189     505     506+
+            507     508     509     510
CTETRA        66       1    7918       6    7964    7965     511     512+
+           5049    5050     513    7997
CTETRA        67       1    4104      59      57      61     503     497+
+            504     514     515     506
CTETRA        68       1    6125      62      63    7665     516     517+
+            518     519     520     521
CTETRA        69       1      61      59      57      60     515     497+
+            506     507     522     505
CTETRA        70       1      60      64      61      59     523     524+
+            507     522     525     515
CTETRA        71       1      65      54    7767      66     526     527+
+            528     529     530     531
CTETRA        72       1      65    8013      67      68     532     533+
+            534     535     536     537
CTETRA        73       1      65    7768      67    7767     538     539+
+            534     528    7788     540
CTETRA        74       1      69    4031      70    4030     541     542+
+            543     544    4585     545
CTETRA        75       1      69      71    4141    4027     546     547+
+            548     549     550    4709
CTETRA        76       1      69    5184      70    5189     551     552+
+            543     553    5205     554
CTETRA        77       1      69      72      73    5184     555     556+
+            557     551     558     559
CTETRA        78       1      69      72    5189    4141     555     560+
+            553     548     561     562
CTETRA        79       1      74      75    7853      76     563     564+
+            565     566     567     568
CTETRA        80       1      77      78      79      74     569     570+
+            571     572     573     574
CTETRA        81       1      80    4020    4025      81     575    4719+
+            576     577     578     579
CTETRA        82       1    5523      82    5508    5524     580     581+
+           5603    5605     582    5606
CTETRA        83       1      83    7769      84      68     583     584+
+            585     586     587     588
CTETRA        84       1      83    7858      84    7769     589     590+
+            585     583    4988     584
CTETRA        85       1      83      84      85      86     585     591+
+            592     593     594     595
CTETRA        86       1      83      85      87      88     592     596+
+            597     598     599     600
CTETRA        87       1      85      87      88      89     596     600+
+            599     601     602     603
CTETRA        88       1      83      84    7858      85     585     590+
+            589     592     591     604
CTETRA        89       1      85      83      87    7859     592     597+
+            596     605     606     607
CTETRA        90       1      90      91    8194    8192     608     609+
+            610     611     612    7710
CTETRA        91       1      90      92    7903       5     613     614+
+            615     616     617     618
CTETRA        92       1      90    7979    5300    5581     619    5383+
+            620     621     622     623
CTETRA        93       1      90    5302      91    5582     624     625+
+            608     626     627     628
CTETRA        94       1    8194      90    5302      91     610     624+
+           5371     609     608     625
CTETRA        95       1      90    7979       5    7903     619     629+
+            616     615    5019     618
CTETRA        96       1      22      28      25      27     351     360+
+            333     347     362     364
CTETRA        97       1    7979       5    5581      90     629     630+
+            622     619     616     621
CTETRA        98       1      93      94    7848      95     631     632+
+            633     634     635     636
CTETRA        99       1      96      97      38      98     637     638+
+            639     640     641     642
CTETRA       100       1      99     100    8022      93     643     644+
+            645     646     647     648
CTETRA       101       1      93     101      95    7849     649     650+
+            634     651     652     653
CTETRA       102       1      93    7779      96     102     654     655+
+            656     657     658     659
CTETRA       103       1     103      93     101     104     660     649+
+            661     662     663     664
CTETRA       104       1    7918      12    7964       6     300     665+
+           5049     511     666     512
CTETRA       105       1      96     102     105     106     659     667+
+            668     669     670     671
CTETRA       106       1      96      97     106      38     637     672+
+            669     639     638     673
CTETRA       107       1      96      38     106    7846     639     673+
+            669     674     675     676
CTETRA       108       1      38      96      94    7846     639     677+
+            678     675     674     679
CTETRA       109       1      93      38     104      98     680     681+
+            663     682     642     683
CTETRA       110       1     107    4093    4089    4088     684    4464+
+            685     686    4463    4445
CTETRA       111       1      96      94    7846    7847     677     679+
+            674     687     688    7899
CTETRA       112       1      16     108      17      18     689     690+
+            308     311     691     312
CTETRA       113       1      16      19     109     110     315     692+
+            693     694     695     696
CTETRA       114       1      94    8086    5409    5406     697    5484+
+            698     699    5468    5483
CTETRA       115       1      12    5588      15      14     304     306+
+            297     296     700     299
CTETRA       116       1    5517      38      95      94     701     702+
+            703     704     678     635
CTETRA       117       1    4194    6090     111    8027     705     706+
+            707     708    6492     709
CTETRA       118       1      95    7848    8084      94     636    5172+
+            710     635     632     711
CTETRA       119       1    7849      95    7848    8084     653     636+
+           7897    5169     710    5172
CTETRA       120       1      95      38      93      94     702     680+
+            634     635     678     631
CTETRA       121       1    4194    8027     111     112     708     709+
+            707     712     713     714
CTETRA       122       1      96    7848      94    7847     715     632+
+            677     687    7898     688
CTETRA       123       1     113     114     115    5507     716     717+
+            718     719     720     721
CTETRA       124       1     113     115    5522    5507     718     722+
+            723     719     721    5599
CTETRA       125       1     113     115     114    7865     718     717+
+            716     724     725     726
CTETRA       126       1    5507    5508     113     114    5604     727+
+            719     720     728     716
CTETRA       127       1     113     116    7865     114     729     730+
+            724     716     731     726
CTETRA       128       1    5523     113    5508      82     732     727+
+           5603     580     733     581
CTETRA       129       1     113    5508      82     114     727     581+
+            733     716     728     734
CTETRA       130       1     113      82    5538     117     733     735+
+            736     737     738     739
CTETRA       131       1     113     116      82     117     729     740+
+            733     737     741     738
CTETRA       132       1     118      98      99     103     742     743+
+            744     745     746     747
CTETRA       133       1     118    5563      98    5562     748     749+
+            742     750    5730     751
CTETRA       134       1    5578    7910     118     119     752     753+
+            754     755     756     757
CTETRA       135       1    7503    7095    4017    7502    7300     758+
+           4724    7587    7299    4823
CTETRA       136       1     118    5563      97      98     748     759+
+            760     742     749     641
CTETRA       137       1     115     113    5538     117     718     736+
+            761     762     737     739
CTETRA       138       1       2       7       1       8     763     275+
+            258     764     277     276
CTETRA       139       1     115     120     121    7867     765     766+
+            767     768     769     770
CTETRA       140       1      45       7     122    7759     771     772+
+            773     774     775     776
CTETRA       141       1     122    7759       7     121     776     775+
+            772     777     778     779
CTETRA       142       1     122     123    7761     120     780     781+
+            782     783     784     785
CTETRA       143       1     122     123    7760    7761     780     786+
+            787     782     781    7784
CTETRA       144       1    6113    7060    6112     124     788     789+
+           6490     790     791     792
CTETRA       145       1     124     125    3995     126     793     794+
+            795     796     797     798
CTETRA       146       1     124     125     126    6109     793     797+
+            796     799     800     801
CTETRA       147       1     124    6112     126     127     792     802+
+            796     803     804     805
CTETRA       148       1     124     125    6109    6113     793     800+
+            799     790     806    6489
CTETRA       149       1     128    4075    4074    4048     807    4395+
+            808     809    4397    4388
CTETRA       150       1    6030    7072      39     129     810     811+
+            812     813     814     815
CTETRA       151       1     129     128    6049    6030     816     817+
+            818     813     819    6295
CTETRA       152       1      66    5181    5182    6176     820    5198+
+            821     822     823     824
CTETRA       153       1    6051     128     130      41     825     826+
+            827     828     829     830
CTETRA       154       1     130     128    6049     129     826     817+
+            831     832     816     818
CTETRA       155       1      41    6051    6052     130     828    6309+
+            833     830     827     834
CTETRA       156       1     128      41    6051    7071     829     828+
+            825     835     836     837
CTETRA       157       1     105    4010    7782     131     838    4959+
+            839     840     841     842
CTETRA       158       1     132    8025    5970     105     843     844+
+            845     846     847     848
CTETRA       159       1    6022     132    8025    5970     849     843+
+           6388     850     845     844
CTETRA       160       1     105     132     102    7780     846     851+
+            667     852     853     854
CTETRA       161       1     105     132    7780    5965     846     853+
+            852     855     856     857
CTETRA       162       1     105     133     106     134     858     859+
+            671     860     861     862
CTETRA       163       1    7782     133     106     105     863     859+
+            864     839     858     671
CTETRA       164       1    7781     105    4010    7782     865     838+
+           4260    7811     839    4959
CTETRA       165       1     135    8022     136    8021     866     867+
+            868     869    8046     870
CTETRA       166       1     135     136     101     137     868     871+
+            872     873     874     875
CTETRA       167       1     135     138    8020     139     876     877+
+            878     879     880     881
CTETRA       168       1     135     140    4053    7777     882     883+
+            884     885     886    4297
CTETRA       169       1     135     138     137    7776     876     887+
+            873     888     889     890
CTETRA       170       1     141      54    8011      55     891     892+
+            893     894     483     895
CTETRA       171       1      48      55    7765    7766     481     896+
+            486     478     482    7803
CTETRA       172       1      48      55     142    7765     481     897+
+            898     486     896     899
CTETRA       173       1      48      49     143      87     467     900+
+            901     902     903     904
CTETRA       174       1      54      66    5186    3990     530     905+
+            906     907     908     909
CTETRA       175       1      65      67      66    7767     534     910+
+            529     528     540     531
CTETRA       176       1      54      48     141     144     480     911+
+            891     912     913     914
CTETRA       177       1      54      66    3990    7767     530     908+
+            907     527     531    4287
CTETRA       178       1     100    7777     101    7778     915     916+
+            917     918    7794     919
CTETRA       179       1     100    8023      99    8022     920     921+
+            643     644    8045     645
CTETRA       180       1     100     140    7777    4067     922     886+
+            915     923     924    4347
CTETRA       181       1     100     145    4067    4063     925     926+
+            923     927     928    4349
CTETRA       182       1     100    4058    4063    7779     929    4332+
+            927     930    4314    4334
CTETRA       183       1     100    7779      93     146     930     654+
+            647     931     932     933
CTETRA       184       1      42     145    6035    6043     934     935+
+            437     435     936    6272
CTETRA       185       1      43      37    4068    4064     937     403+
+            938     939     940    4355
CTETRA       186       1      43      40    4072    4068     941     942+
+            943     938     415    4374
CTETRA       187       1      42      43    4065     145     433     944+
+            945     934     946     947
CTETRA       188       1      42      40      43    6057     429     941+
+            433     431     430     436
CTETRA       189       1      43    4064     147      37     939     948+
+            949     937     940     950
CTETRA       190       1      43     147     145    6036     949     951+
+            946     952     953     954
CTETRA       191       1      43     145    6043    6036     946     936+
+            434     952     954    6280
CTETRA       192       1      43      37    6044    6057     937     955+
+            956     436     957    6328
CTETRA       193       1     148    6176    6196     149     958    6846+
+            959     960     961     962
CTETRA       194       1      35      39    4093      53     410     963+
+            964     477     965     966
CTETRA       195       1      35    7075    4094    7074     967     968+
+            969     970    7175     971
CTETRA       196       1      35      39    7074    4078     410     972+
+            970     973     974     975
CTETRA       197       1      35      39    4078    4093     410     974+
+            973     964     963    4459
CTETRA       198       1      35    4095      52    4093     976     977+
+            476     964    4470     978
CTETRA       199       1     150     151    5966    5971     979     980+
+            981     982     983    5981
CTETRA       200       1    4062    4063     147     150    4333     984+
+            985     986     987     988
CTETRA       201       1     150     147    4062     152     988     985+
+            986     989     990     991
CTETRA       202       1     152     151     150    6042     992     979+
+            989     993     994     995
CTETRA       203       1     150    6032     132     146     996     997+
+            998     999    1000    1001
CTETRA       204       1     150    6040     151    5971    1002    1003+
+            979     982    1004     983
CTETRA       205       1    6042     151     150    6040     994     979+
+            995    6256    1003    1002
CTETRA       206       1     150    6040     132    6032    1002    1005+
+            998     996    6248     997
CTETRA       207       1     153    7775      74     138    1006    1007+
+           1008    1009    1010    1011
CTETRA       208       1     153     138    4082    7775    1009    1012+
+           1013    1006    1010    4419
CTETRA       209       1     153     154    8018     155    1014    1015+
+           1016    1017    1018    1019
CTETRA       210       1     108     155     153      74    1020    1017+
+           1021    1022    1023    1008
CTETRA       211       1     108     153    7773    7774    1021    1024+
+           1025    1026    1027    7798
CTETRA       212       1     153     138    6203     156    1009    1028+
+           1029    1030    1031    1032
CTETRA       213       1     153    7773     157     154    1024    1033+
+           1034    1014    1035    1036
CTETRA       214       1     107      52    6211    6209    1037    1038+
+           1039    1040    1041    6912
CTETRA       215       1     107     158     157    4084    1042    1043+
+           1044    1045    1046    1047
CTETRA       216       1     107      52    4093      53    1037     978+
+            684    1048     473     966
CTETRA       217       1     159     160    4182    3996    1049    1050+
+           1051    1052    1053    4897
CTETRA       218       1     159    4182     160     161    1051    1050+
+           1049    1054    1055    1056
CTETRA       219       1     159     125    3996    4004    1057    1058+
+           1052    1059    1060    4227
CTETRA       220       1     159     125    4004    7059    1057    1060+
+           1059    1061    1062    1063
CTETRA       221       1    7058    3997    4004     159    1064    4226+
+           1065    1066    1067    1059
CTETRA       222       1     148    5182    5188    5183    1068    5200+
+           1069    1070    5202    5201
CTETRA       223       1     159     161    6108    7057    1054    1071+
+           1072    1073    1074    1075
CTETRA       224       1     159    3997     161    7057    1067    1076+
+           1054    1073    1077    1074
CTETRA       225       1     162     163    7084    6187    1078    1079+
+           1080    1081    1082    1083
CTETRA       226       1     162      64    6062    7083    1084    1085+
+           1086    1087    1088    1089
CTETRA       227       1     162     163    6185      61    1078    1090+
+           1091    1092    1093    1094
CTETRA       228       1     162    6185     163    6187    1091    1090+
+           1078    1081    6801    1082
CTETRA       229       1     162      64    6188    6062    1084    1095+
+           1096    1086    1085    6802
CTETRA       230       1     147     145    4063    4064     951     928+
+            984     948    1097    4340
CTETRA       231       1     147     152    6039    6037     990    1098+
+           1099    1100    1101    6266
CTETRA       232       1     147     152     164    4061     990    1102+
+           1103    1104    1105    1106
CTETRA       233       1     147      37    4064     164     950     940+
+            948    1103    1107    1108
CTETRA       234       1     165     103     139     166    1109    1110+
+           1111    1112    1113    1114
CTETRA       235       1     165     167    5592    5297    1115    1116+
+           1117    1118    1119    1120
CTETRA       236       1     165     103     166    5576    1109    1113+
+           1112    1121    1122    1123
CTETRA       237       1     165     166    5296    5591    1112    1124+
+           1125    1126    1127    1128
CTETRA       238       1     165    7968    5297    5296    1129    5339+
+           1118    1125    5333    5337
CTETRA       239       1      45    7759     122    7760     774     776+
+            773    1130    7806     787
CTETRA       240       1     168       9       7       8    1131     278+
+           1132    1133     280     277
CTETRA       241       1     122    8033     169      92    1134    1135+
+           1136    1137    1138    1139
CTETRA       242       1       7       2      92     121     763    1140+
+           1141     779    1142    1143
CTETRA       243       1      45      32       7    4151     464    1144+
+            771    1145    1146    1147
CTETRA       244       1       7    6119      32    6118    1148    1149+
+           1144    1150    6550     466
CTETRA       245       1       7      32    6119     170    1144    1149+
+           1148    1151    1152    1153
CTETRA       246       1       7    4151      32     170    1147    1146+
+           1144    1151    1154    1152
CTETRA       247       1     168       7    8031     170    1132    1155+
+           1156    1157    1151    1158
CTETRA       248       1     122    8033      92    8032    1134    1138+
+           1137    1159    8035    1160
CTETRA       249       1    5188    4115     148      70    1161    1162+
+           1069    1163    1164    1165
CTETRA       250       1    4115     148    4123    4124    1162    1166+
+           4634    4629    1167    4614
CTETRA       251       1     171     172    4111     173    1168    1169+
+           1170    1171    1172    1173
CTETRA       252       1     174      70    4115    4114    1174    1164+
+           1175    1176    1177    4584
CTETRA       253       1     174      70    6192    6199    1174    1178+
+           1179    1180    1181    6856
CTETRA       254       1     174    7089    4116    7088    1182    1183+
+           1184    1185    7217    1186
CTETRA       255       1     175      91    7955    5301    1187    1188+
+           1189    1190    1191    5365
CTETRA       256       1     175     176    5568    5569    1192    1193+
+           1194    1195    1196    5746
CTETRA       257       1     175     177     176    5569    1197    1198+
+           1192    1195    1199    1196
CTETRA       258       1     163     178    6181    6185    1200    1201+
+           1202    1090    1203    6788
CTETRA       259       1     163    4118     179     178    1204    1205+
+           1206    1200    1207    1208
CTETRA       260       1     163      61     178    6185    1093    1209+
+           1200    1090    1094    1203
CTETRA       261       1     163    6180     179    7085    1210    1211+
+           1206    1212    1213    1214
CTETRA       262       1     163     179    4117    7085    1206    1215+
+           1216    1212    1214    1217
CTETRA       263       1     163     179    4118    4117    1206    1205+
+           1204    1216    1215    4600
CTETRA       264       1     163     179    6180    6179    1206    1211+
+           1210    1218    1219    6789
CTETRA       265       1     107      52      53    6211    1037     473+
+           1048    1039    1038    1220
CTETRA       266       1    7098    4174    7500    7499    1221    4852+
+           7294    7293    4851    7590
CTETRA       267       1      35      52      53    4093     476     473+
+            477     964     978     966
CTETRA       268       1      52    4090     158    4089    1222    1223+
+           1224    1225    4442    1226
CTETRA       269       1     180    6200     181    6208    1227    1228+
+           1229    1230    6901    1231
CTETRA       270       1     180    6208     158     157    1230    1232+
+           1233    1234    1235    1043
CTETRA       271       1    4081    4079    7772     182    4408    4402+
+           4407    1236    1237    1238
CTETRA       272       1     182    4079    7772     154    1237    4402+
+           1238    1239    1240    1241
CTETRA       273       1     180     158    4084     157    1233    1046+
+           1242    1234    1043    1047
CTETRA       274       1     180     181    4080    4084    1229    1243+
+           1244    1242    1245    4425
CTETRA       275       1    7773     154    4079     157    1035    1240+
+           4403    1033    1036    1246
CTETRA       276       1      70    5188    5189    5183    1163    5203+
+            554    1247    5201    5204
CTETRA       277       1     183     184    6157    6164    1248    1249+
+           1250    1251    1252    6716
CTETRA       278       1     183    4174     185    7097    1253    1254+
+           1255    1256    1257    1258
CTETRA       279       1     183     185    4174    4172    1255    1254+
+           1253    1259    1260    4854
CTETRA       280       1     183    4169     186     184    1261    1262+
+           1263    1248    1264    1265
CTETRA       281       1     183     186    6157     184    1263    1266+
+           1250    1248    1265    1249
CTETRA       282       1     183     185    6167    7097    1255    1267+
+           1268    1256    1258    1269
CTETRA       283       1     183     185    6164    6167    1255    1270+
+           1251    1268    1267    6729
CTETRA       284       1     187    4163      31    7105    1271    1272+
+           1273    1274    1275    1276
CTETRA       285       1     187      31    4163    4158    1273    1272+
+           1271    1277    1278    4809
CTETRA       286       1    4014    7106    4163     187    1279    1280+
+           4808    1281    1282    1271
CTETRA       287       1     148    5182    5187    5188    1068    5197+
+           1283    1069    5200    5199
CTETRA       288       1     187     188    4014    7107    1284    1285+
+           1281    1286    1287    1288
CTETRA       289       1     187     188    7107    6145    1284    1287+
+           1286    1289    1290    1291
CTETRA       290       1     124     126    4006     127     796    1292+
+           1293     803     805    1294
CTETRA       291       1     124    4006     126    3995    1293    1292+
+            796     795    4233     798
CTETRA       292       1     124    6109     126    6112     799     801+
+            796     792    6479     802
CTETRA       293       1     159    4004    3996    3997    1059    4227+
+           1052    1067    4226    4228
CTETRA       294       1     159    7059    4004    7058    1061    1063+
+           1059    1066    7127    1065
CTETRA       295       1    4004     124    7537    7060    1295    1296+
+           4242    1297     791    7369
CTETRA       296       1     124    3995     125    4005     795     794+
+            793    1298    4231    1299
CTETRA       297       1     185    7097    4173    7096    1258    1300+
+           1301    1302    7241    1303
CTETRA       298       1     183    7097    7098    4174    1256    7244+
+           1304    1253    1257    1221
CTETRA       299       1     185      81     184    6164    1305    1306+
+           1307    1270    1308    1252
CTETRA       300       1     185      81     189    4019    1305    1309+
+           1310    1311    1312    1313
CTETRA       301       1     185    4172      81    4019    1260    1314+
+           1305    1311    4846    1312
CTETRA       302       1     112     190    6098     111    1315    1316+
+           1317     714    1318    1319
CTETRA       303       1     134    8027     133     112    1320    1321+
+            861    1322     713    1323
CTETRA       304       1     112     111    6089    8027     714    1324+
+           1325     713     709    6493
CTETRA       305       1     112    4189     111    4194    1326    1327+
+            714     712    4955     707
CTETRA       306       1     112     190     111    4189    1315    1318+
+            714    1326    1328    1327
CTETRA       307       1     133    8027    8190     112    1321    1329+
+           1330    1323     713    1331
CTETRA       308       1     191      30     192    4160    1332    1333+
+           1334    1335    1336    1337
CTETRA       309       1     191      30    6140    6132    1332     366+
+           1338    1339    1340    6601
CTETRA       310       1     191      30    6132     192    1332    1340+
+           1339    1334    1333    1341
CTETRA       311       1     191    4161     192    7103    1342    1343+
+           1334    1344    1345    1346
CTETRA       312       1     191    6143      31    7105    1347    1348+
+           1349    1350    1351    1276
CTETRA       313       1     191      31    6143    6140    1349    1348+
+           1347    1338     370    6618
CTETRA       314       1    6138    7104    6143     191    1352    1353+
+           6617    1354    1355    1347
CTETRA       315       1    5186    3990    4037    7736     909    4289+
+           1356    5215    4291    4290
CTETRA       316       1     191     192    6138    7103    1334    1357+
+           1354    1344    1346    1358
CTETRA       317       1      28    6097      24    6085    1359    1360+
+           1361     357    6415    1362
CTETRA       318       1      28    4192     160    4193    1363    1364+
+           1365    1366    4948    1367
CTETRA       319       1      28     160    4182     161    1365    1050+
+           1368    1369    1056    1055
CTETRA       320       1      28     160    6107    6096    1365    1370+
+           1371    1372    1373    6458
CTETRA       321       1      28     160    6096     111    1365    1373+
+           1372    1374    1375    1376
CTETRA       322       1      28      27    6096    6099     362    1377+
+           1372     358     363    6413
CTETRA       323       1      28     160     161    6107    1365    1056+
+           1369    1371    1370    1378
CTETRA       324       1     190      27    6100    6098    1379    1380+
+           1381    1316    1382    6424
CTETRA       325       1     190    4178     193    7006    1383    1384+
+           1385    1386    1387    1388
CTETRA       326       1     190      27    4190    7005    1379     346+
+           1389    1390     350     349
CTETRA       327       1    7102    7430    7429    6133    7257    7456+
+           7255    1391    6596    6567
CTETRA       328       1     190     193    4178    7755    1385    1384+
+           1383    1392    1393    4889
CTETRA       329       1     112     190    7755     193    1315    1392+
+           1394    1395    1385    1393
CTETRA       330       1     190      27    4188    4190    1379    1396+
+           1397    1389     346    4928
CTETRA       331       1    4189     111    4193     190    1327    1398+
+           4947    1328    1318    1399
CTETRA       332       1    5586     194    7960     195    1400    1401+
+           1402    1403    1404    1405
CTETRA       333       1    5294     194    7960    5586    1406    1401+
+           5316    1407    1400    1402
CTETRA       334       1     194    5293      15    5587    1408    1409+
+           1410    1411    1412    1413
CTETRA       335       1     194    7960     195    7922    1401    1405+
+           1404    1414    5057    1415
CTETRA       336       1    7962    5293      15     194    5308    1409+
+           1416    1417    1408    1410
CTETRA       337       1     150    4062    4057     151     986    4321+
+           1418     979    1419    1420
CTETRA       338       1     152     196    6038    6048    1421    1422+
+           1423    1424    1425    6285
CTETRA       339       1    4062     152     151     150     991     992+
+           1419     986     989     979
CTETRA       340       1     152     151    6042     197     992     994+
+            993    1426    1427    1428
CTETRA       341       1     150     147     152    6039     988     990+
+            989    1429    1099    1098
CTETRA       342       1     152     198    6042    6038    1430    1431+
+            993    1423    1432    6265
CTETRA       343       1     107    6213     158    6209    1433    1434+
+           1042    1040    6904    1435
CTETRA       344       1     158     157    6208    6213    1043    1235+
+           1232    1434    1436    6902
CTETRA       345       1     158    6208     181    6221    1232    1231+
+           1437    1438    6949    1439
CTETRA       346       1     107     157    6213    6202    1044    1436+
+           1433    1440    1441    6906
CTETRA       347       1      35    6222     199    7075    1442    1443+
+           1444     967    1445    1446
CTETRA       348       1     158    4085     200     181    1447    1448+
+           1449    1437    1450    1451
CTETRA       349       1     107     158    4084    4089    1042    1046+
+           1045     685    1226    4441
CTETRA       350       1     158     181    4084    4085    1437    1245+
+           1046    1447    1450    4426
CTETRA       351       1      24     161    4183    7056    1452    1453+
+           1454    1455    1456    1457
CTETRA       352       1      28     161      24    6097    1369    1452+
+           1361    1359    1458    1360
CTETRA       353       1      24     161    6105    6097    1452    1459+
+           1460    1360    1458    6452
CTETRA       354       1      24     161    4184    4183    1452    1461+
+           1462    1454    1453    4916
CTETRA       355       1      29    4157      30      31     389     388+
+            365     368    1463     369
CTETRA       356       1     191      30    4162      31    1332    1464+
+           1465    1349     369    1466
CTETRA       357       1      30    4162      31    4157    1464    1466+
+            369     388    4804    1463
CTETRA       358       1      11      10     134     201     284    1467+
+           1468    1469    1470    1471
CTETRA       359       1     119     201     202    5579    1472    1473+
+           1474    1475    1476    1477
CTETRA       360       1     201     202    5579    5580    1473    1477+
+           1476    1478    1479    5779
CTETRA       361       1     201       4    7976    7906    1480    1481+
+           1482    1483    1484    5025
CTETRA       362       1    7906     201      11    7907    1483    1469+
+           1485    7933    1486    1487
CTETRA       363       1     201    7976       4    5305    1482    1481+
+           1480    1488    5393    1489
CTETRA       364       1     201       4     202    5580    1480    1490+
+           1473    1478    1491    1479
CTETRA       365       1     201    5595    5303    5305    1492    1493+
+           1494    1488    1495    5395
CTETRA       366       1     145     147    6039    6036     951    1099+
+           1496     954     953    6244
CTETRA       367       1      37    6045     164    6037    1497    1498+
+           1107    1499    6290    1500
CTETRA       368       1    6053      40    6057      37    1501     430+
+           6330    1502     427     957
CTETRA       369       1      42      43      40    4072     433     941+
+            429     445     943     942
CTETRA       370       1      43     145     147    4064     946     951+
+            949     939    1097     948
CTETRA       371       1     203     204    4045    4100    1503    1504+
+           1505    1506    1507    4505
CTETRA       372       1     203    4045     204    4091    1505    1504+
+           1503    1508    4437    1509
CTETRA       373       1     203     200    4096    4091    1510    1511+
+           1512    1508    1513    4475
CTETRA       374       1     203    4096     200    7078    1512    1511+
+           1510    1514    1515    1516
CTETRA       375       1     203     200    6225    7078    1510    1517+
+           1518    1514    1516    1519
CTETRA       376       1     203    7079    7078    6224    1520    7187+
+           1514    1521    1522    1523
CTETRA       377       1     205     176    5538      82    1524    1525+
+           1526    1527    1528     735
CTETRA       378       1      54    3990    5186    5185     907     909+
+            906    1529    1530    5191
CTETRA       379       1    5554     177     176     205    1531    1198+
+           1532    1533    1534    1524
CTETRA       380       1     205      51      49     141    1535     471+
+           1536    1537    1538    1539
CTETRA       381       1     205     177     141     143    1534    1540+
+           1537    1541    1542    1543
CTETRA       382       1     205     206     177     176    1544    1545+
+           1534    1524    1546    1198
CTETRA       383       1     207    4022     208     209    1547    1548+
+           1549    1550    1551    1552
CTETRA       384       1     207    4140     210    4138    1553    1554+
+           1555    1556    4705    1557
CTETRA       385       1     207    4133     211     212    1558    1559+
+           1560    1561    1562    1563
CTETRA       386       1     207     209    4133    4022    1550    1564+
+           1558    1547    1551    4665
CTETRA       387       1     207     212    4137    4133    1561    1565+
+           1566    1558    1562    4692
CTETRA       388       1     159     161    6107    6108    1054    1378+
+           1567    1072    1071    6464
CTETRA       389       1     125     213    6109    6106    1568    1569+
+            800    1570    1571    6468
CTETRA       390       1     125     126    6109     213     797     801+
+            800    1568    1572    1569
CTETRA       391       1    7385    6108    7058    7386    6466    1573+
+           7123    7450    6484    7125
CTETRA       392       1     159     125    6113    6110    1057     806+
+           1574    1575    1576    6486
CTETRA       393       1     159     125    6110     160    1057    1576+
+           1575    1049    1577    1578
CTETRA       394       1      36      40      37    4068     414     427+
+            397     402     415     403
CTETRA       395       1      37     164    4071    4069    1107    1579+
+           1580    1581    1582    4365
CTETRA       396       1     164     196    4060    4061    1583    1584+
+           1585    1106    1586    4331
CTETRA       397       1     152     164    6048    6037    1102    1587+
+           1424    1101    1500    6289
CTETRA       398       1     147      37     164    6037     950    1107+
+           1103    1100    1499    1500
CTETRA       399       1     164     196    6048    6046    1583    1425+
+           1587    1588    1589    6286
CTETRA       400       1     164      36    7068    6050    1590     401+
+           1591    1592     394     400
CTETRA       401       1      36    4071      37     164    1593    1580+
+            397    1590    1579    1107
CTETRA       402       1      40      37    6053    6054     427    1502+
+           1501     428     398    6318
CTETRA       403       1      90     169      92      21    1594    1139+
+            613    1595    1596    1597
CTETRA       404       1      66    5181    5187    5182     820    5196+
+           1598     821    5198    5197
CTETRA       405       1      90    7903      92    7902     615     614+
+            613    1599    7929    1600
CTETRA       406       1    7904       5      92       9    1601     617+
+           1602    1603     293    1604
CTETRA       407       1    7903       5      92    7904     618     617+
+            614    7930    1601    1602
CTETRA       408       1      92      21     121       2    1597    1605+
+           1143    1140    1606    1142
CTETRA       409       1     174     214     215    6198    1607    1608+
+           1609    1610    1611    1612
CTETRA       410       1     215     214    4123    4122    1608    1613+
+           1614    1615    1616    4619
CTETRA       411       1     215     214    6194    6198    1608    1617+
+           1618    1612    1611    6853
CTETRA       412       1     216    4167    7100    4164    1619    1620+
+           1621    1622    4818    1623
CTETRA       413       1      80    7745    7744    5910    1624    7753+
+           1625    1626    5962    5963
CTETRA       414       1     215     217    6197    6178    1627    1628+
+           1629    1630    1631    6841
CTETRA       415       1     208     210    4021    4138    1632    1633+
+           1634    1635    1557    4689
CTETRA       416       1     207     208    4138     210    1549    1635+
+           1556    1555    1632    1557
CTETRA       417       1     208     210    6152    7093    1632    1636+
+           1637    1638    1639    1640
CTETRA       418       1     208    4021     210    7093    1634    1633+
+           1632    1638    1641    1639
CTETRA       419       1     214    7087    6198    7088    1642    1643+
+           1611    1644    7214    1645
CTETRA       420       1     174    4123     214    4126    1646    1613+
+           1607    1647    4632    1648
CTETRA       421       1     214     179    6193    7086    1649    1650+
+           1651    1652    1653    1654
CTETRA       422       1     214     179    4121    4122    1649    1655+
+           1656    1616    1657    4617
CTETRA       423       1     214    7087    4126    4125    1642    1658+
+           1648    1659    1660    4627
CTETRA       424       1     215     214    4122     179    1608    1616+
+           1615    1661    1649    1657
CTETRA       425       1      89      85    7859    8073     601     605+
+           1662    1663    1664    5150
CTETRA       426       1     214     179    6194    6193    1649    1665+
+           1617    1651    1650    6835
CTETRA       427       1     121    7868    7869     218    1666    7877+
+           1667    1668    1669    1670
CTETRA       428       1       8     219     121    7869    1671    1672+
+           1673    1674    1675    1667
CTETRA       429       1     218    5522     115    5507    1676     722+
+           1677    1678    5599     721
CTETRA       430       1     218    8064    5400    5402    1679    5421+
+           1680    1681    5437    5436
CTETRA       431       1     121       2     115     218    1142    1682+
+            767    1668    1683    1677
CTETRA       432       1     218    7868    7869    8064    1669    7877+
+           1670    1679    5132    5129
CTETRA       433       1     218    8066    5401     115    1684    5430+
+           1685    1677    1686    1687
CTETRA       434       1    7867     218     121     115    1688    1668+
+            770     768    1677     767
CTETRA       435       1     218     115    7867    8066    1677     768+
+           1688    1684    1686    5133
CTETRA       436       1     149    5182     148    6176    1689    1068+
+            960     961     824     958
CTETRA       437       1     220     216    6078    7101    1690    1691+
+           1692    1693    1694    1695
CTETRA       438       1     220    4164     216    7101    1696    1622+
+           1690    1693    1697    1694
CTETRA       439       1     220    7101    6129    7102    1693    1698+
+           1699    1700    7256    1701
CTETRA       440       1     220     216    4143      62    1690    1702+
+           1703    1704    1705    1706
CTETRA       441       1     220    4143     216    4164    1703    1702+
+           1690    1696    4864    1622
CTETRA       442       1     220     221    4143    4152    1707    1708+
+           1703    1709    1710    4762
CTETRA       443       1     220     192    6128     221    1711    1712+
+           1713    1707    1714    1715
CTETRA       444       1      30      34    6131    6127     383    1716+
+           1717    1718    1719    6577
CTETRA       445       1      34      47    6122     221    1720    1721+
+           1722    1723    1724    1725
CTETRA       446       1      45      32      34    6126     464    1726+
+            462     460     375     461
CTETRA       447       1      34      32    4146    4147    1726    1727+
+           1728    1729    1730    4747
CTETRA       448       1      29    6131      34    6126    1731    1716+
+            382     374    6576     461
CTETRA       449       1      30     192     221    6127    1333    1714+
+           1732    1718    1733    1734
CTETRA       450       1    4152      34      30     221    1735     383+
+           1736    1710    1723    1732
CTETRA       451       1      34     221    4152    4155    1723    1710+
+           1735    1737    1738    4775
CTETRA       452       1     126    7670     127    6103    1739    1740+
+            805    1741    1742    1743
CTETRA       453       1     126     127    6112    6103     805     804+
+            802    1741    1743    6478
CTETRA       454       1    5910      81    4025     222    1744     579+
+           1745    1746    1747    1748
CTETRA       455       1     126     223    6103    6104    1749    1750+
+           1741    1751    1752    6448
CTETRA       456       1     126     213     223    6104    1572    1753+
+           1749    1751    1754    1752
CTETRA       457       1    7072     128     129    6030    1755     816+
+            814     810     819     813
CTETRA       458       1      35    7074      39    6059     970     972+
+            410     385    1756     409
CTETRA       459       1      35    4094    4093    4078     969    4466+
+            964     973    4465    4459
CTETRA       460       1      39     129    6229    6030     815    1757+
+           1758     812     813    6994
CTETRA       461       1      39      53    6229     129     965    1759+
+           1758     815    1760    1757
CTETRA       462       1      39    7073    6228    7074    1761    1762+
+           1763     972    7172    1764
CTETRA       463       1     110    7854      76     108    1765    1766+
+           1767    1768    1769    1770
CTETRA       464       1     109    5411     110    8077    1771    1772+
+            696    1773    5494    1774
CTETRA       465       1     110    5410    5411    5513    1775    5493+
+           1772    1776    1777    1778
CTETRA       466       1     109     110    7856    8077     696    1779+
+           1780    1773    1774    5155
CTETRA       467       1     110    7856      19     109    1779    1781+
+            695     696    1780     692
CTETRA       468       1     110      76    7854    8079    1767    1766+
+           1765    1782    1783    5159
CTETRA       469       1     110      76    8079    5412    1767    1783+
+           1782    1784    1785    5499
CTETRA       470       1     110      76    5412    5514    1767    1785+
+           1784    1786    1787    1788
CTETRA       471       1      30     192    4152     221    1333    1789+
+           1736    1732    1714    1710
CTETRA       472       1     191    7493    4162    4161    1790    4815+
+           1465    1342    4803    4807
CTETRA       473       1     191      30      31    6140    1332     369+
+           1349    1338     366     370
CTETRA       474       1      30    4152     192    4160    1736    1789+
+           1333    1336    4798    1337
CTETRA       475       1     192     221    6127    6128    1714    1734+
+           1733    1712    1715    6556
CTETRA       476       1     220    6128     192    6129    1713    1712+
+           1711    1699    6563    1791
CTETRA       477       1    4153    4152      34      30    4776    1735+
+            384     380    1736     383
CTETRA       478       1     186    7098    6163    7099    1792    1793+
+           1794    1795    7247    1796
CTETRA       479       1     186    4165     216     224    1797    1798+
+           1799    1800    1801    1802
CTETRA       480       1     186    6156     216    7100    1803    1804+
+           1799    1805    1806    1621
CTETRA       481       1     183    4170     186    4169    1807    1808+
+           1263    1261    4837    1262
CTETRA       482       1     186     216    4167    7100    1799    1619+
+           1809    1805    1621    1620
CTETRA       483       1     179    6179    6181     215    1219    6778+
+           1810    1661    1811    1812
CTETRA       484       1     215    6179    6181    6178    1811    6778+
+           1812    1630    6777    6776
CTETRA       485       1     214    6195    7086    6193    1813    1814+
+           1652    1651    6839    1654
CTETRA       486       1     163    7084    7085    4117    1079    7205+
+           1212    1216    1815    1217
CTETRA       487       1     162      61    6185    6188    1092    1094+
+           1091    1096    1816    6806
CTETRA       488       1     162     163      61    4106    1078    1093+
+           1092    1817    1818    1819
CTETRA       489       1     178    6185    6186    6181    1203    6792+
+           1820    1201    6788    6791
CTETRA       490       1     179    7085    7086    4121    1214    7208+
+           1653    1655    1821    1822
CTETRA       491       1      67      66    7767    4037     910     531+
+            540    1823    1824    4286
CTETRA       492       1      67     225      66    4037    1825    1826+
+            910    1823    1827    1824
CTETRA       493       1    4035    4113    4034      67    4573    4569+
+           4269    1828    1829    1830
CTETRA       494       1     226      65      87      83    1831    1832+
+           1833    1834    1835     597
CTETRA       495       1      67    8014     172      68    1836    1837+
+           1838     537    1839    1840
CTETRA       496       1      67      68    8013    8014     537     536+
+            533    1836    1839    8054
CTETRA       497       1    6175      66      65      67    1841     529+
+           1842    1843     910     534
CTETRA       498       1     148    5187    4124    5188    1283    1844+
+           1167    1069    5199    1845
CTETRA       499       1      67     225    6174    6175    1825    1846+
+           1847    1843    1848    6771
CTETRA       500       1      65      68     226    8013     535    1849+
+           1831     532     536    1850
CTETRA       501       1    6174      67    8014     172    1847    1836+
+           6868    1851    1838    1837
CTETRA       502       1      67    7769    7768      68    1852    7785+
+            539     537     587    1853
CTETRA       503       1      65      83     226      68    1835    1834+
+           1831     535     586    1849
CTETRA       504       1    7767    7768      87      65    7788    1854+
+           1855     528     538    1832
CTETRA       505       1      83     227     228     226    1856    1857+
+           1858    1834    1859    1860
CTETRA       506       1    7722    3936    4080    4081    3964    1861+
+           4415    4411    1862    4413
CTETRA       507       1     130    4049    4099    5242    1863    4495+
+           1864    1865    1866    1867
CTETRA       508       1      68     172     229    8014    1840    1868+
+           1869    1839    1837    1870
CTETRA       509       1     216      62    6123    6079    1705    1871+
+           1872    1873    1874    6526
CTETRA       510       1     216    4143      62    4165    1702    1706+
+           1705    1798    4861    1875
CTETRA       511       1     186     224     216    6079    1800    1802+
+           1799    1876    1877    1873
CTETRA       512       1     186    4167     216    4165    1809    1619+
+           1799    1797    4820    1798
CTETRA       513       1     216    7100    7101    4164    1621    7253+
+           1694    1622    1623    1697
CTETRA       514       1     163     178    4106    4118    1200    1878+
+           1818    1204    1207    4598
CTETRA       515       1     207     211     209    6147    1560    1879+
+           1550    1880    1881    1882
CTETRA       516       1     211     209    6154     230    1879    1883+
+           1884    1885    1886    1887
CTETRA       517       1     211     209     230    4023    1879    1886+
+           1885    1888    1889    1890
CTETRA       518       1     211     209    4023    4133    1879    1889+
+           1888    1559    1564    4662
CTETRA       519       1     211     212    4133    4132    1563    1562+
+           1559    1891    1892    4680
CTETRA       520       1      45      34      32    4146     462    1726+
+            464    1893    1728    1727
CTETRA       521       1      45       7      32    6118     771    1144+
+            464     465    1150     466
CTETRA       522       1      32      33    6130    6119    1894     376+
+            372    1149    1895    6568
CTETRA       523       1       7     170    6119    8031    1151    1153+
+           1148    1155    1158    6638
CTETRA       524       1     231     232    6146     233    1896    1897+
+           1898    1899    1900    1901
CTETRA       525       1     232     230    4024    4134    1902    1903+
+           1904    1905    1906    4667
CTETRA       526       1     211    6146     230    6154    1907    1908+
+           1885    1884    6681    1887
CTETRA       527       1     233    4135     232    4128    1909    1910+
+           1900    1911    4671    1912
CTETRA       528       1     211     231    4132    4135    1913    1914+
+           1891    1915    1916    4677
CTETRA       529       1    8022     100    6033     140     644    1917+
+           6350    1918     922    1919
CTETRA       530       1    6039     145    6033     100    1496    1920+
+           6241    1921     925    1917
CTETRA       531       1     147    4062    4064    4063     985    4338+
+            948     984    4333    4340
CTETRA       532       1     147      37    6037    6044     950    1499+
+           1100    1922     955    6282
CTETRA       533       1     149    6197     217    6177    1923    1628+
+           1924    1925    6843    1926
CTETRA       534       1     100     147     150    6039    1927     988+
+           1928    1921    1099    1429
CTETRA       535       1      43    4065     145    4064     944     947+
+            946     939    4341    1097
CTETRA       536       1     100     145     140    4067     925    1929+
+            922     923     926     924
CTETRA       537       1     145    4066     140    4067    1930    1931+
+           1929     926    4343     924
CTETRA       538       1     163    4106    4117    4118    1818    4592+
+           1216    1204    4598    4600
CTETRA       539       1      52     200    4090    4097    1932    1933+
+           1222    1934    1935    4481
CTETRA       540       1      35      52     199    6210     476    1936+
+           1444     387    1937    1938
CTETRA       541       1    6211      53    6060      52    1220     474+
+           6918    1038     473     475
CTETRA       542       1     199    6226     200    7077    1939    1940+
+           1941    1942    1943    1944
CTETRA       543       1     199     200    6226    6223    1941    1940+
+           1939    1945    1946    6975
CTETRA       544       1    6222    7076    6226     199    1947    1948+
+           6974    1443    1949    1939
CTETRA       545       1     135    6031    6026    7689    1950    6235+
+           1951    1952    1953    1954
CTETRA       546       1     199    7076    7075    6222    1949    7178+
+           1446    1443    1947    1445
CTETRA       547       1     151     197    5967    5972    1427    1955+
+           1956    1957    1958    5985
CTETRA       548       1     229    7684    6065    3935    1959    1960+
+           1961    1962    3975    1963
CTETRA       549       1     151     197     234    5967    1427    1964+
+           1965    1956    1955    1966
CTETRA       550       1     150     132    5971    5966     998    1967+
+            982     981    1968    5981
CTETRA       551       1     151     197    4057     234    1427    1969+
+           1420    1965    1964    1970
CTETRA       552       1     210     235    7092    4139    1971    1972+
+           1973    1974    1975    1976
CTETRA       553       1     210    7092     235    6069    1973    1972+
+           1971    1977    1978    1979
CTETRA       554       1     207     208    6155     209    1549    1980+
+           1981    1550    1552    1982
CTETRA       555       1    6148     207      72     210    1983    1984+
+           1985    1986    1555    1987
CTETRA       556       1     210    6070     235      71    1988    1989+
+           1971    1990    1991    1992
CTETRA       557       1     210    4139    4140      71    1974    4704+
+           1554    1990    1993    1994
CTETRA       558       1     195    7958    5585     177    1995    1996+
+           1997    1998    1999    2000
CTETRA       559       1     205     141     177     206    1537    1540+
+           1534    1544    2001    1545
CTETRA       560       1     177     195     144     143    1998    2002+
+           2003    1542    2004    2005
CTETRA       561       1     205    5555     177     143    2006    2007+
+           1534    1541    2008    1542
CTETRA       562       1     205    5554     177    5555    1533    1531+
+           1534    2006    5706    2007
CTETRA       563       1    5555     177     195    5570    2007    1998+
+           2009    5751    2010    2011
CTETRA       564       1     177     195    7924     144    1998    2012+
+           2013    2003    2002    2014
CTETRA       565       1      79    7850      95     101    2015    2016+
+           2017    2018    2019     650
CTETRA       566       1    5516      79      75      95    2020    2021+
+           2022    2023    2017    2024
CTETRA       567       1      79    5531      78    5546    2025    2026+
+            570    2027    5683    2028
CTETRA       568       1      79    5546      78      77    2027    2028+
+            570     571    2029     569
CTETRA       569       1      79    5531      95    5516    2025    2030+
+           2017    2020    5635    2023
CTETRA       570       1      79      75      78    5530    2021    2031+
+            570    2032    2033    2034
CTETRA       571       1      79    5515      75    5530    2035    2036+
+           2021    2032    5631    2033
CTETRA       572       1      79     101      95     104    2018     650+
+           2017    2037     664    2038
CTETRA       573       1      79      74     137      77     574    2039+
+           2040     571     572    2041
CTETRA       574       1     128    4048    4047     129     809    4387+
+           2042     816    2043    2044
CTETRA       575       1    4073    4075     128      41    4393     807+
+           2045    2046    2047     829
CTETRA       576       1    4073    4075    4074     128    4393    4395+
+           4394    2045     807     808
CTETRA       577       1     129    7072      39    4047     814     811+
+            815    2044    2048    2049
CTETRA       578       1     128    7072    4047    7525    1755    2048+
+           2042    2050    7345    4389
CTETRA       579       1     130    6052    5236    6028     834    2051+
+           2052    2053    6305    2054
CTETRA       580       1     130    6051    6052    6049     827    6309+
+            834     831    6308    6307
CTETRA       581       1      69      70    5188    5189     543    1163+
+           2055     553     554    5203
CTETRA       582       1      69      73      72      71     557     556+
+            555     546    2056    2057
CTETRA       583       1    7680      72     212    4136    2058    2059+
+           2060    2061    2062    2063
CTETRA       584       1      71    4140     210      72    1994    1554+
+           1990    2057    2064    1987
CTETRA       585       1     212    7680     236    7679    2060    2065+
+           2066    2067    7682    2068
CTETRA       586       1      47      62    4142    7664    2069    2070+
+           2071    2072    2073    2074
CTETRA       587       1      46    6121      47    6124     453     457+
+            456    2075    6536    2076
CTETRA       588       1      46    4154      47    4145    2077    2078+
+            456    2079    4766    2080
CTETRA       589       1     149      66    6176     225    2081     822+
+            961    2082    1826    2083
CTETRA       590       1      45      46      47    4145     452     456+
+            455    2084    2079    2080
CTETRA       591       1      47    4156     221    4155    2085    2086+
+           1724    2087    4779    1738
CTETRA       592       1      47      62    7664    7665    2069    2073+
+           2072    2088     520    7667
CTETRA       593       1    6125    6122      63      62    6540    2089+
+            518     516    2090     517
CTETRA       594       1    4053    5244    3993    7823    2091    2092+
+           4295    4292    5276    4294
CTETRA       595       1      61     171    6186      58    2093    2094+
+           2095    2096    2097    2098
CTETRA       596       1    7685    4032    7771    3991    2099    4277+
+           2100    2101    4279    4278
CTETRA       597       1    3940     171    4105      58    2102    2103+
+            495     496    2097     492
CTETRA       598       1    3940    3935     229     171    3956    1962+
+           2104    2102    2105    2106
CTETRA       599       1     171    4033     229    4112    2107    2108+
+           2106    2109    4547    2110
CTETRA       600       1     171     172     229    4033    1168    1868+
+           2106    2107    2111    2108
CTETRA       601       1     207     208     210    6148    1549    1632+
+           1555    1983    2112    1986
CTETRA       602       1     207    4138     208    4022    1556    1635+
+           1549    1547    4688    1548
CTETRA       603       1     209     189    4018    4022    2113    2114+
+           2115    1551    2116    4725
CTETRA       604       1     209      81     189    6161    2117    1309+
+           2113    2118    2119    2120
CTETRA       605       1     209    6161    6154     230    2118    6705+
+           1883    1886    2121    1887
CTETRA       606       1    6162     209    6161    6154    2122    2118+
+           6708    6707    1883    6705
CTETRA       607       1     208     189    6160    6155    2123    2124+
+           2125    1980    2126    6699
CTETRA       608       1     237    6101     238    6093    2127    2128+
+           2129    2130    6433    2131
CTETRA       609       1    6020     237    6019     198    2132    2133+
+           6264    2134    2135    2136
CTETRA       610       1     237    3999     238    4001    2137    2138+
+           2129    2139    4211    2140
CTETRA       611       1     237     198    3986    7064    2135    2141+
+           2142    2143    2144    2145
CTETRA       612       1     237    6019     198    7064    2133    2136+
+           2135    2143    2146    2144
CTETRA       613       1     239     182    7684    7771    2147    2148+
+           2149    2150    2151    2152
CTETRA       614       1     237    7063    7064    4000    2153    7142+
+           2143    2154    2155    2156
CTETRA       615       1     240    4102     204    4100    2157    2158+
+           2159    2160    4515    1507
CTETRA       616       1     240    4042     241    4102    2161    2162+
+           2163    2157    4520    2164
CTETRA       617       1     240    6215     242    7081    2165    2166+
+           2167    2168    2169    2170
CTETRA       618       1     240     241    4042     242    2163    2162+
+           2161    2167    2171    2172
CTETRA       619       1     240     242    4101    7081    2167    2173+
+           2174    2168    2170    2175
CTETRA       620       1     237    6093     238     197    2130    2131+
+           2129    2176    2177    2178
CTETRA       621       1     238     243    6101    7062    2179    2180+
+           2128    2181    2182    2183
CTETRA       622       1     238     127    4002    3998    2184    2185+
+           2186    2187    2188    4217
CTETRA       623       1     238     243    6102    6101    2179    2189+
+           2190    2128    2180    6438
CTETRA       624       1    7779     146     102      93     932    2191+
+            658     654     933     657
CTETRA       625       1     135    7689    6026    5239    1952    1954+
+           1951    2192    5279    2193
CTETRA       626       1      95    5531     104    5532    2030    2194+
+           2038    2195    5637    2196
CTETRA       627       1      95    5405    5516    5408    2197    2198+
+           2023    2199    5473    2200
CTETRA       628       1      93     104      95     101     663    2038+
+            634     649     664     650
CTETRA       629       1      93    7849      95    7848     651     653+
+            634     633    7897     636
CTETRA       630       1     171    6065    6184    3935    2201    6782+
+           2202    2105    1963    2203
CTETRA       631       1     171      58    6184    6186    2097    2204+
+           2202    2094    2098    6794
CTETRA       632       1     171    6182     173     178    2205    2206+
+           1171    2207    2208    2209
CTETRA       633       1    6060      52    6210    6211     475    1937+
+           6915    6918    1038    6914
CTETRA       634       1     171    6182     178    6186    2205    2208+
+           2207    2094    6793    1820
CTETRA       635       1      57      58      61    6189     493    2096+
+            506     509    2210     510
CTETRA       636       1      58      61    6189    6186    2096     510+
+           2210    2098    2095    6809
CTETRA       637       1    7711    6184    3935    6189    6783    2203+
+           3978    6808    6807    2211
CTETRA       638       1    6184    3935    6189      58    2203    2211+
+           6807    2204    2212    2210
CTETRA       639       1     193       9      11    8029    2213    2214+
+           2215    2216    2217    2218
CTETRA       640       1     168     193    7001    6116    2219    2220+
+           2221    2222    2223    2224
CTETRA       641       1    7756     193    7006     168    2225    1388+
+           2226    2227    2219    2228
CTETRA       642       1     168     193    8030       9    2219    2229+
+           2230    1131    2213    2231
CTETRA       643       1     168    8030     193    6116    2230    2229+
+           2219    2222    6524    2223
CTETRA       644       1     209     189    6162    6161    2113    2232+
+           2122    2118    2120    6708
CTETRA       645       1     209    6162     189    6155    2122    2232+
+           2113    1982    6702    2126
CTETRA       646       1     207     211    6147     212    1560    1881+
+           1880    1561    1563    2233
CTETRA       647       1     208     210    6148    6152    1632    1986+
+           2112    1637    1636    6669
CTETRA       648       1     207     209     211    4133    1550    1879+
+           1560    1558    1564    1559
CTETRA       649       1     230      81    6161    6153    2234    2119+
+           2121    2235    2236    6704
CTETRA       650       1     230      81    4024    4019    2234    2237+
+           1903    2238    1312    4728
CTETRA       651       1     242      59    4039      64    2239    2240+
+           2241    2242     525    2243
CTETRA       652       1      59      64      61    4104     525     524+
+            515     503    2244     514
CTETRA       653       1      59      64    4104    4039     525    2244+
+            503    2240    2243    4543
CTETRA       654       1     142     116    7763     206    2245    2246+
+           2247    2248    2249    2250
CTETRA       655       1    7763     142     233    7764    2247    2251+
+           2252    7801    2253    2254
CTETRA       656       1     233     231    7764     142    1899    2255+
+           2254    2251    2256    2253
CTETRA       657       1     135    7689    5239    7690    1952    5279+
+           2192    2257    7692    5280
CTETRA       658       1     233    8008    7763     244    2258    2259+
+           2252    2260    2261    2262
CTETRA       659       1    8008     233    6073     244    2258    2263+
+           6382    2261    2260    2264
CTETRA       660       1     233    6074     231     142    2265    2266+
+           1899    2251    2267    2256
CTETRA       661       1      53     245    5243    4076    2268    2269+
+           2270    2271    2272    2273
CTETRA       662       1      53    6227     129    5237    2274    2275+
+           1760    2276    2277    2278
CTETRA       663       1      53    6229     129    6227    1759    1757+
+           1760    2274    6993    2275
CTETRA       664       1      52    6209    6210    6211    1041    6913+
+           1937    1038    6912    6914
CTETRA       665       1      39    6229      53    6060    1758    1759+
+            965     411    6997     474
CTETRA       666       1     107      53    6061    6211    1048    2279+
+           2280    1039    1220    6920
CTETRA       667       1      39     129    4047    4077     815    2044+
+           2049    2281    2282    4498
CTETRA       668       1      39      53     129    4077     965    1760+
+            815    2281    2283    2282
CTETRA       669       1      53     245    4076    4088    2268    2272+
+           2271    2284    2285    4460
CTETRA       670       1      56      80    5910      81    2286    1626+
+           2287    2288     577    1744
CTETRA       671       1    5915    5910      81      56    5922    1744+
+           2289     490    2287    2288
CTETRA       672       1      81    4020    4025    4024     578    4719+
+            579    2237    4721    4649
CTETRA       673       1      81     222    6159    6153    1747    2290+
+           2291    2236    2292    6688
CTETRA       674       1      91    5582    5302    5583     628     627+
+            625    2293    5786    2294
CTETRA       675       1      91    5568     176      21    2295    1193+
+           2296    2297    2298    2299
CTETRA       676       1     169     176      91    7927    2300    2296+
+           2301    2302    2303    2304
CTETRA       677       1      90     169      91    8192    1594    2301+
+            608     611    2305     612
CTETRA       678       1      90    5566       5    5581    2306    2307+
+            616     621    5782     630
CTETRA       679       1      91    5583    5302    5301    2293    2294+
+            625    1191    2308    5368
CTETRA       680       1     194    7922     195     226    1414    1415+
+           1404    2309    2310    2311
CTETRA       681       1      15    7921    7962     194    2312    5056+
+           1416    1410    2313    1417
CTETRA       682       1    7661    7107    7490    4175    7273    7275+
+           7274    2314    2315    4865
CTETRA       683       1     228    5557      15      20    2316    2317+
+           2318    2319    2320    2321
CTETRA       684       1     228    5572      15    5557    2322    2323+
+           2318    2316    5757    2317
CTETRA       685       1     228      15     227      20    2318    2324+
+           1857    2319    2321    2325
CTETRA       686       1     195     226     143     228    2311    2326+
+           2004    2327    1860    2328
CTETRA       687       1     144     195     226     143    2002    2311+
+           2329    2005    2004    2326
CTETRA       688       1     228     226     143      88    1860    2326+
+           2328    2330    2331    2332
CTETRA       689       1    7920      15    7921    7962    2333    2312+
+           7947    5053    1416    5056
CTETRA       690       1     194      15    7921     226    1410    2312+
+           2313    2309    2334    2335
CTETRA       691       1     228     227      15     226    1857    2324+
+           2318    1860    1859    2334
CTETRA       692       1      89    7861      50    8071    2336    2337+
+           2338    2339    5146    2340
CTETRA       693       1      89    5403    8073    8072    2341    5445+
+           1663    2342    5447    8101
CTETRA       694       1      89      50    5403    8071    2338    2343+
+           2341    2339    2340    5455
CTETRA       695       1     111     223    6095    6090    2344    2345+
+           2346     706    2347    6411
CTETRA       696       1     131    7782    8190    4194     842    7810+
+           2348    2349    4957    4956
CTETRA       697       1     190     111      27    6098    1318    2350+
+           1379    1316    1319    1382
CTETRA       698       1      27     190    4188    4193    1379    1397+
+           1396    2351    1399    4946
CTETRA       699       1     190     111    4193      27    1318    1398+
+           1399    1379    2350    2351
CTETRA       700       1    4083     153     156    4082    2352    1030+
+           2353    4423    1013    2354
CTETRA       701       1     135     140    7690    4053     882    2355+
+           2257     884     883    2356
CTETRA       702       1     180    4084     158     181    1242    1046+
+           1233    1229    1245    1437
CTETRA       703       1     153    8018     157    6202    1016    2357+
+           1034    2358    6875    1441
CTETRA       704       1     157     154    6201    8018    1036    2359+
+           2360    2357    1015    6873
CTETRA       705       1     154    6201    6204     180    2359    6876+
+           2361    2362    2363    2364
CTETRA       706       1     193    6025    6116    8030    2365    6520+
+           2223    2229    6525    6524
CTETRA       707       1     154    4079     157     180    1240    1246+
+           1036    2362    2366    1234
CTETRA       708       1     198     197    3987    4056    2367    2368+
+           2369    2370    2371    4304
CTETRA       709       1     152    4055     196    4061    2372    2373+
+           1421    1105    4329    1586
CTETRA       710       1     198    6020     197    6042    2134    2374+
+           2367    1431    6259    1428
CTETRA       711       1     198    6038     196    6019    1432    1422+
+           2375    2136    6263    2376
CTETRA       712       1    6153     222     244     232    2292    2377+
+           2378    2379    2380    2381
CTETRA       713       1     209     189    4019    4018    2113    1313+
+           2382    2115    2114    4731
CTETRA       714       1    6146     233    6074     231    1901    2265+
+           6658    1898    1899    2266
CTETRA       715       1    7661    7054    7381    6134    7108    7112+
+           7111    2383    2384    6582
CTETRA       716       1    7762     244    8008     246    2385    2261+
+           2386    2387    2388    2389
CTETRA       717       1     244     246    7762    4129    2388    2387+
+           2385    2390    2391    4653
CTETRA       718       1     244     246    4129    5911    2388    2391+
+           2390    2392    2393    2394
CTETRA       719       1     244    6077     246    5916    2395    2396+
+           2388    2397    2398    2399
CTETRA       720       1     244     246    6077    8008    2388    2396+
+           2395    2261    2389    6383
CTETRA       721       1     244    6153    6073    6072    2378    6676+
+           2264    2400    6678    6381
CTETRA       722       1    6072     244    5916    6077    2400    2397+
+           2401    6380    2395    2398
CTETRA       723       1     196    7066    7067    4060    2402    7151+
+           2403    1584    2404    2405
CTETRA       724       1     196    7065    6047    7066    2406    2407+
+           2408    2402    7148    2409
CTETRA       725       1     196    7066    6047    6046    2402    2409+
+           2408    1589    2410    6274
CTETRA       726       1     140    7689    7690    5240    2411    7692+
+           2355    2412    5266    5265
CTETRA       727       1     147    4064    4062    4061     948    4338+
+            985    1104    4339    4328
CTETRA       728       1     164     196    6046    7067    1583    1589+
+           1588    2413    2403    2414
CTETRA       729       1     218     115    5522       2    1677     722+
+           1676    1683    1682    2415
CTETRA       730       1     247    8063    8062    5400    2416    8091+
+           2417    2418    5419    5418
CTETRA       731       1     248       3     249     247    2419    2420+
+           2421    2422    2423    2424
CTETRA       732       1      10     248       3     249    2425    2419+
+            289    2426    2421    2420
CTETRA       733       1     247    7870     219     249    2427    2428+
+           2429    2424    2430    2431
CTETRA       734       1    7870    8063    8062     247    5127    8091+
+           5128    2427    2416    2417
CTETRA       735       1    8191     247     250    7872    2432    2433+
+           2434    5124    2435    2436
CTETRA       736       1     174    6190    6192      70    2437    6825+
+           1179    1174    2438    1178
CTETRA       737       1    5184    5183    6068      73    5206    2439+
+           2440     559    2441    2442
CTETRA       738       1      69      73      70    5184     557    2443+
+            543     551     559     552
CTETRA       739       1      70     148    6199     174    1165    2444+
+           1181    1174    2445    1180
CTETRA       740       1     130    6052    6028    6029     834    6305+
+           2053    2446    6304    6306
CTETRA       741       1      70     251    6067      73    2447    2448+
+           2449    2443    2450    2451
CTETRA       742       1      70    6190    6192    6067    2438    6825+
+           1178    2449    6821    6823
CTETRA       743       1    4115     148      70     174    1162    1165+
+           1164    1175    2445    1174
CTETRA       744       1    4131     236     212    4136    2452    2066+
+           2453    4686    2454    2063
CTETRA       745       1      73    5183    6068    6192    2441    2439+
+           2442    2455    2456    6824
CTETRA       746       1     236      55    5180    5185    2457    2458+
+           2459    2460    2461    5190
CTETRA       747       1     231    4131    7765      55    2462    4674+
+           2463    2464    2465     896
CTETRA       748       1      55    4131    7765    4127    2465    4674+
+            896    2466    4684    4685
CTETRA       749       1    4136    4131    4132     212    4686    4678+
+           4687    2063    2453    1892
CTETRA       750       1     212    4131    4132     231    2453    4678+
+           1892    2467    2462    1914
CTETRA       751       1     236      55    5185    4127    2457    2461+
+           2460    2468    2466    2469
CTETRA       752       1    7680    4127    4136     236    2470    4681+
+           2061    2065    2468    2454
CTETRA       753       1    8184    7680    4127    4136    7683    2470+
+           4682    4683    2061    4681
CTETRA       754       1    7661    8173    7107    6141    7663    7272+
+           7273    2471    6610    2472
CTETRA       755       1     211    6154    6147    6146    1884    6679+
+           1881    1907    6681    6666
CTETRA       756       1      14      13    7918    7919     295     302+
+            301    2473    2474    7945
CTETRA       757       1      14    7962      15    7920    2475    1416+
+            299    2476    5053    2333
CTETRA       758       1      14    7962    5293      15    2475    5308+
+           2477     299    1416    1409
CTETRA       759       1    5573      12    5558    5574     303    2478+
+           5760    5761    2479    5762
CTETRA       760       1     172    6174     173    6182    1851    2480+
+           1172    2481    6767    2206
CTETRA       761       1     172     229    4033    7769    1868    2108+
+           2111    2482    2483    4272
CTETRA       762       1    8014     229     227    8015    1870    2484+
+           2485    8053    2486    2487
CTETRA       763       1    6173    8014    8015     229    6867    8053+
+           6865    2488    1870    2486
CTETRA       764       1      64     242    4041    4039    2242    2489+
+           2490    2243    2241    4533
CTETRA       765       1      64     242    6063    6205    2242    2491+
+           2492    2493    2494    6898
CTETRA       766       1      64    6063      60    6188    2492    2495+
+            523    1095    6804    2496
CTETRA       767       1      64     242    6205    7082    2242    2494+
+           2493    2497    2498    2499
CTETRA       768       1      64     242    7082    4041    2242    2498+
+           2497    2490    2489    2500
CTETRA       769       1      64    7082    7083    4038    2497    7199+
+           1088    2501    2502    2503
CTETRA       770       1       4     202    5565      10    1490    2504+
+           2505     286    2506    2507
CTETRA       771       1    5580       4     202    5565    1491    1490+
+           1479    5781    2505    2504
CTETRA       772       1       1      10       4    7699     283     286+
+            266     262    2508    2509
CTETRA       773       1      10     134     202     133    1467    2510+
+           2506    2511     861    2512
CTETRA       774       1       9    8030    8031    7904    2231    8037+
+           2513    1603    5077    5074
CTETRA       775       1     202       4     201      10    1490    1480+
+           1473    2506     286    1470
CTETRA       776       1       1    7700       5    5566     264     268+
+            267    2514    5834    2307
CTETRA       777       1      10     248     249     133    2425    2421+
+           2426    2511    2515    2516
CTETRA       778       1      11    7905       9       1    2517     291+
+           2214     285     290     279
CTETRA       779       1      23    6085      24    6084    2518    1362+
+            329    2519    6417    2520
CTETRA       780       1     215     179    4118     217    1661    1205+
+           2521    1627    2522    2523
CTETRA       781       1     149    4036    4120    5187    2524    4595+
+           2525    2526    2527    2528
CTETRA       782       1     149    4109     217    4119    2529    2530+
+           1924    2531    4601    2532
CTETRA       783       1     148     149    4123    4120     960    2533+
+           1166    2534    2525    4613
CTETRA       784       1     118     252    7910     102    2535    2536+
+            753    2537    2538    2539
CTETRA       785       1    8024     252     105     102    2540    2541+
+           2542    2543    2538     667
CTETRA       786       1     252    7909     119    7910    2544    2545+
+           2546    2536    7936     756
CTETRA       787       1     105     102     252     106     667    2538+
+           2541     671     670    2547
CTETRA       788       1     105     132    8025    8024     846     843+
+            847    2542    2548    8043
CTETRA       789       1     252     201     134     202    2549    1471+
+           2550    2551    1473    2510
CTETRA       790       1    7909     201     134     252    2552    1471+
+           2553    2544    2549    2550
CTETRA       791       1     126     213    4180     223    1572    2554+
+           2555    1749    1753    2556
CTETRA       792       1      28     111      27    4193    1374    2350+
+            362    1366    1398    2351
CTETRA       793       1     160     213    4193    4181    2557    2558+
+           1367    2559    2560    4950
CTETRA       794       1      28    6107     161    6097    1371    1378+
+           1369    1359    6456    1458
CTETRA       795       1     111    6095     213    6096    2346    2561+
+           2562    1376    6407    2563
CTETRA       796       1     126     213    6104    6109    1572    1754+
+           1751     801    1569    6467
CTETRA       797       1     111     223     213    6095    2344    1753+
+           2562    2346    2345    2561
CTETRA       798       1     213     223    6104    6095    1753    1752+
+           1754    2561    2345    6444
CTETRA       799       1     204    4085     200    4091    2564    1448+
+           2565    1509    4434    1513
CTETRA       800       1     204    6221     181    6218    2566    1439+
+           2567    2568    6954    2569
CTETRA       801       1     203     204     200    4091    1503    2565+
+           1510    1508    1509    1513
CTETRA       802       1     204     181    4085    4046    2567    1450+
+           2564    2570    2571    4416
CTETRA       803       1     240     241     204    4102    2163    2572+
+           2159    2157    2164    2158
CTETRA       804       1     204    6217     241    6216    2573    2574+
+           2572    2575    6944    2576
CTETRA       805       1     204     200     181    6221    2565    1451+
+           2567    2566    2577    1439
CTETRA       806       1    4007    5968    3998     127    2578    2579+
+           4244    2580    2581    2188
CTETRA       807       1     126    4006     127    3994    1292    1294+
+            805    2582    4239    2583
CTETRA       808       1     127    4008     243    4002    2584    2585+
+           2586    2185    4246    2587
CTETRA       809       1     127    3994    4006    4007    2583    4239+
+           1294    2580    4238    4241
CTETRA       810       1     127    4006     243    4008    1294    2588+
+           2586    2584    4249    2585
CTETRA       811       1    6076    8193    8008     246    6375    8060+
+           6378    2589    2590    2389
CTETRA       812       1     246    5916    6076    5917    2399    2591+
+           2589    2592    5928    2593
CTETRA       813       1     244    7763    4129    7762    2262    4652+
+           2390    2385    7799    4653
CTETRA       814       1      54    8012    6027    6172    2594    6763+
+           2595    2596    6762    6758
CTETRA       815       1      65     226     144    8012    1831    2329+
+           2597    2598    2599    2600
CTETRA       816       1     212    4132    4136    4137    1892    4687+
+           2063    1565    4694    4695
CTETRA       817       1     231      55    6151     212    2464    2601+
+           2602    2467    2603    2604
CTETRA       818       1      55    8010     231    6075    2605    2606+
+           2464    2607    6366    2608
CTETRA       819       1      55    6027    6075    6150    2609    6364+
+           2607    2610    6656    6657
CTETRA       820       1     251     235    6170      71    2611    2612+
+           2613    2614    1992    2615
CTETRA       821       1     251    7090    4114    7089    2616    2617+
+           2618    2619    7220    2620
CTETRA       822       1     251      73    6170    6067    2450    2621+
+           2613    2448    2451    6746
CTETRA       823       1      70      73    6067    6192    2443    2451+
+           2449    1178    2455    6823
CTETRA       824       1     251     235    4029    7091    2611    2622+
+           2623    2624    2625    2626
CTETRA       825       1     251     235    7091    6066    2611    2625+
+           2624    2627    2628    2629
CTETRA       826       1     229    4033    4032    4112    2108    4276+
+           2630    2110    4547    4548
CTETRA       827       1     239     229      84    7770    2631    2632+
+           2633    2634    2635    2636
CTETRA       828       1     239    6065    8016    8015    2637    6353+
+           2638    2639    6354    8052
CTETRA       829       1    3935     229     171    6065    1962    2106+
+           2105    1963    1961    2201
CTETRA       830       1    7684    6065    8016     239    1960    6353+
+           2640    2149    2637    2638
CTETRA       831       1    5555     205    5540     143    2006    2641+
+           5708    2008    1541    2642
CTETRA       832       1      49      82    5539    5524    2643    2644+
+           2645    2646     582    5662
CTETRA       833       1      51      48    7862      50     470     485+
+            484     472     469    2647
CTETRA       834       1      48     144      87     143     913    2648+
+            902     901    2005     904
CTETRA       835       1      48     143     141     144     901    1543+
+            911     913    2005     914
CTETRA       836       1      89      49      87      88    2649     903+
+            602     603    2650     600
CTETRA       837       1      49      88    5540     143    2650    2651+
+           2652     900    2332    2642
CTETRA       838       1    4034    7769    7768      67    4271    7785+
+           4268    1830    1852     539
CTETRA       839       1     173    4111     178    4107    1173    2653+
+           2209    2654    4564    2655
CTETRA       840       1     171     172    6173     229    1168    2656+
+           2657    2106    1868    2488
CTETRA       841       1     173     178    6182    6181    2209    2208+
+           2206    2658    1201    6766
CTETRA       842       1     173     225    6183    6174    2659    2660+
+           2661    2480    1846    6770
CTETRA       843       1     173     225      67    4113    2659    1825+
+           2662    2663    2664    1829
CTETRA       844       1    7674    7675    7003      33    7677    7044+
+           7043    2665    2666    2667
CTETRA       845       1      33    7675    7003    7008    2666    7044+
+           2667    2668    7042    7024
CTETRA       846       1     253      31    4158    4148    2669    1278+
+           2670    2671    2672    4786
CTETRA       847       1    7008    4149    4148    4016    2673    4732+
+           2674    2675    4740    4735
CTETRA       848       1    4177     253     254     188    2676    2677+
+           2678    2679    2680    2681
CTETRA       849       1     253     188    4177    4015    2680    2679+
+           2676    2682    2683    4878
CTETRA       850       1    4016    7008     253    4148    2675    2684+
+           2685    4735    2674    2671
CTETRA       851       1      58    6186    6189    6184    2098    6809+
+           2210    2204    6794    6807
CTETRA       852       1     163     178      61    4106    1200    1209+
+           1093    1818    1878    1819
CTETRA       853       1     131    4010    4179    5964     841    4905+
+           2686    2687    2688    2689
CTETRA       854       1     131    6090    6114    6091    2690    6495+
+           2691    2692    6446    6496
CTETRA       855       1     131    4194    4179    7782    2349    4953+
+           2686     842    4957    4958
CTETRA       856       1     105    4010    5964    5965     838    2688+
+           2693     855    2694    5978
CTETRA       857       1     212      55    6151    6150    2603    2601+
+           2604    2695    2610    6662
CTETRA       858       1     235    4029    7091    7506    2622    2626+
+           2625    2696    4582    7307
CTETRA       859       1     210    7093    4139    7092    1639    2697+
+           1974    1973    7229    1976
CTETRA       860       1     210    6069    7093    7092    1977    2698+
+           1639    1973    1978    7229
CTETRA       861       1     251    4029     235      71    2623    2622+
+           2611    2614    2699    1992
CTETRA       862       1     251    7091    4029    7090    2624    2626+
+           2623    2616    7223    2700
CTETRA       863       1     251    6066    7091    7090    2627    2629+
+           2624    2616    2701    7223
CTETRA       864       1     235      71    6070    6170    1992    1991+
+           1989    2612    2615    6752
CTETRA       865       1     251      73      71    6170    2450    2056+
+           2614    2613    2621    2615
CTETRA       866       1     210    6069     235    6070    1977    1979+
+           1971    1988    6649    1989
CTETRA       867       1    7419     235    7091    7092    2702    2625+
+           7224    7225    1972    7226
CTETRA       868       1     235    6069    7092    7419    1979    1978+
+           1972    2702    6733    7225
CTETRA       869       1      59     242     241      60    2239    2171+
+           2703     522    2704    2705
CTETRA       870       1     241      60    3934    3939    2705    2706+
+           2707    2708    2709    3952
CTETRA       871       1     240     241    6206    6216    2163    2710+
+           2711    2712    2576    6939
CTETRA       872       1     241      60    6207    3934    2705    2713+
+           2714    2707    2706    2715
CTETRA       873       1     241      60    6206    6207    2705    2716+
+           2710    2714    2713    6894
CTETRA       874       1      86     228     227      20    2717    1857+
+           2718    2719    2319    2325
CTETRA       875       1    5236    6028    6052    8132    2054    6305+
+           2051    5288    6335    6332
CTETRA       876       1     207    6155     208    6148    1981    1980+
+           1549    1983    6673    2112
CTETRA       877       1    4140      72    4137     207    2064    2720+
+           4713    1553    1984    1566
CTETRA       878       1     208     189    4022    4017    2123    2116+
+           1548    2721    2722    4723
CTETRA       879       1     207    6148    6147    6155    1983    6643+
+           1880    1981    6673    6675
CTETRA       880       1     207     209    6155    6147    1550    1982+
+           1981    1880    1882    6675
CTETRA       881       1      72    6148    6070    6149    1985    6647+
+           2723    2724    6641    6644
CTETRA       882       1     210    6148    6070      72    1986    6647+
+           1988    1987    1985    2723
CTETRA       883       1    6171    8012      65    6172    6755    2598+
+           2725    6761    6762    2726
CTETRA       884       1      67      66     225    6175     910    1826+
+           1825    1843    1841    1848
CTETRA       885       1      66    5181    6176    6171     820     823+
+            822    2727    2728    6864
CTETRA       886       1     234    3998    5967     197    2729    2730+
+           1966    1964    2731    1955
CTETRA       887       1    7065    3986    4054     196    2732    4307+
+           2733    2406    2734    2735
CTETRA       888       1     197    6093    6094    6021    2177    6402+
+           2736    2737    6401    6400
CTETRA       889       1     237    6093     197    6020    2130    2177+
+           2176    2132    6397    2374
CTETRA       890       1     151    6042    6041    6040     994    6261+
+           2738    1003    6256    6255
CTETRA       891       1     198    6042    6038    6020    1431    6265+
+           1432    2134    6259    6262
CTETRA       892       1    4056     151     197    4057    2739    1427+
+           2371    4305    1420    1969
CTETRA       893       1     151    4062    4056     152    1419    4326+
+           2739     992     991    2740
CTETRA       894       1     240    6216     204     241    2712    2575+
+           2159    2163    2576    2572
CTETRA       895       1      59    3939     241    4043     501    2708+
+           2703    2741    2742    2743
CTETRA       896       1      59    4043     241    4042    2741    2743+
+           2703    2744    4521    2162
CTETRA       897       1     242    4101    4041    4042    2173    4508+
+           2489    2172    4510    4509
CTETRA       898       1     201     119     252    7909    1472    2546+
+           2549    2552    2545    2544
CTETRA       899       1      10       3    5550    7698     289    2745+
+           2746    2747     260    5874
CTETRA       900       1     201      10     134     202    1470    1467+
+           1471    1473    2506    2510
CTETRA       901       1      72    6170      73    6168    2748    2621+
+            556    2749    6747    2750
CTETRA       902       1    5565     202    5550      10    2504    2751+
+           5738    2507    2506    2746
CTETRA       903       1     179     178    6181     163    1208    1201+
+           1810    1206    1200    1202
CTETRA       904       1     173     217    6183     225    2752    2753+
+           2661    2659    2754    2660
CTETRA       905       1     173     178     217    4107    2209    2755+
+           2752    2654    2655    2756
CTETRA       906       1     178    4118     217    4107    1207    2523+
+           2755    2655    4599    2756
CTETRA       907       1     178      61     171    6186    1209    2093+
+           2207    1820    2095    2094
CTETRA       908       1     173    6183     217    6181    2661    2753+
+           2752    2658    6765    2757
CTETRA       909       1     184     224    5909    4166    2758    2759+
+           2760    2761    2762    2763
CTETRA       910       1     186     224     184    4169    1800    2758+
+           1265    1262    2764    1264
CTETRA       911       1     184     224    5914    5909    2758    2765+
+           2766    2760    2759    5919
CTETRA       912       1     184     224    6157    6080    2758    2767+
+           1249    2768    2769    6694
CTETRA       913       1     184     224    6080    5914    2758    2769+
+           2768    2766    2765    2770
CTETRA       914       1     195    7958    7924    7959    1995    5061+
+           2012    2771    8003    5062
CTETRA       915       1     143    5541      86      88    2772    2773+
+           2774    2332    2775    2776
CTETRA       916       1     195    5556     143    5555    2777    2778+
+           2004    2009    5709    2008
CTETRA       917       1     177     144    7924     141    2003    2014+
+           2013    1540     914    2779
CTETRA       918       1     177     143     144     141    1542    2005+
+           2003    1540    1543     914
CTETRA       919       1    7094    7422    6160    7095    7233    6701+
+           2780    7235    7234    2781
CTETRA       920       1     143    5555     177     195    2008    2007+
+           1542    2004    2009    1998
CTETRA       921       1     187    6145    7107    7106    1289    1291+
+           1286    1282    2782    7271
CTETRA       922       1     188    4012     254    4177    2783    2784+
+           2681    2679    4886    2678
CTETRA       923       1     188    4012      23     254    2783     331+
+           2785    2681    2784    2786
CTETRA       924       1     253    6135    6136    7674    2787    6589+
+           2788    2789    2790    2791
CTETRA       925       1     188    7107    6145    6141    1287    1291+
+           1290    2792    2472    6627
CTETRA       926       1     188    7661    7107    6141    2793    7273+
+           1287    2792    2471    2472
CTETRA       927       1     188     254    6134    6135    2681    2794+
+           2795    2796    2797    6585
CTETRA       928       1    6135     254    7674     253    2797    2798+
+           2790    2787    2677    2789
CTETRA       929       1     188    4175    4015    4014    2799    4869+
+           2683    1285    4868    4785
CTETRA       930       1     222    6153    6072    6159    2292    6678+
+           2800    2290    6688    6687
CTETRA       931       1     222    6072     244    5916    2800    2400+
+           2377    2801    2401    2397
CTETRA       932       1     140    8022     100     101    1918     644+
+            922    2802    2803     917
CTETRA       933       1    7774     153    7775      74    1027    1006+
+           7797    2804    1008    1007
CTETRA       934       1    6212    6202     156     107    6907    2805+
+           2806    2807    1440    2808
CTETRA       935       1     138    7775    7776    3993    1010    7791+
+            889    2809    4299    4298
CTETRA       936       1     135     137     138     139     873     887+
+            876     879    2810     880
CTETRA       937       1     149    6177    6176    6196    1925    6775+
+            961     962    6844    6846
CTETRA       938       1     148     215     149    6197    2811    2812+
+            960    2813    1629    1923
CTETRA       939       1    6181     215     217     179    1812    1627+
+           2757    1810    1661    2522
CTETRA       940       1     171      61     178    4110    2093    1209+
+           2207    2814    2815    2816
CTETRA       941       1     179     217     178    4118    2522    2755+
+           1208    1205    2523    1207
CTETRA       942       1     214    7086    4125    4121    1652    2817+
+           1659    1656    1822    4620
CTETRA       943       1     215     214     179    6194    1608    1649+
+           1661    1618    1617    1665
CTETRA       944       1     217     225    4108    4109    2754    2818+
+           2819    2530    2820    4575
CTETRA       945       1     173     225    4113    4108    2659    2664+
+           2663    2821    2818    4572
CTETRA       946       1      39      53    4077    4093     965    2283+
+           2281     963     966    4457
CTETRA       947       1      35      39      53    6060     410     965+
+            477     386     411     474
CTETRA       948       1      39    4078    4093    4077     974    4459+
+            963    2281    4458    4457
CTETRA       949       1     129      53    5242    4099    1760    2822+
+           2823    2824    2825    1867
CTETRA       950       1     129    4077    4099    4048    2282    4499+
+           2824    2043    4500    4496
CTETRA       951       1      75      76    5412    8080     567    1785+
+           2826    2827    2828    5498
CTETRA       952       1      74      75      76      78     563     567+
+            566     573    2031    2829
CTETRA       953       1      62    6122     221    6123    2090    1725+
+           2830    1871    6541    2831
CTETRA       954       1     216     224      62    6079    1802    2832+
+           1705    1873    1877    1874
CTETRA       955       1     220     221    6128    6123    1707    1715+
+           1713    2833    2831    6562
CTETRA       956       1      45      34      47    6121     462    1720+
+            455     454     463     457
CTETRA       957       1     216      62     224    4165    1705    2832+
+           1802    1798    1875    1801
CTETRA       958       1      47      62     221    4156    2069    2830+
+           1724    2085    2834    2086
CTETRA       959       1      62     224    4165    4142    2832    1801+
+           1875    2070    2835    4860
CTETRA       960       1      62    4143     221    4156    1706    1708+
+           2830    2834    4778    2086
CTETRA       961       1     158    4090     200    4085    1223    1933+
+           1449    1447    4435    1448
CTETRA       962       1     203    6225    6220    6224    1518    6972+
+           2836    1521    6973    6969
CTETRA       963       1     203    4091    4044    4045    1508    4438+
+           2837    1505    4437    4439
CTETRA       964       1     203    6224    7078    6225    1521    1523+
+           1514    1518    6973    1519
CTETRA       965       1      35    6059    6210    6222     385    6916+
+            387    1442    6959    6960
CTETRA       966       1     199    7077    7076    6226    1942    7181+
+           1949    1939    1943    1948
CTETRA       967       1     200    7078    4096    7077    1516    1515+
+           1511    1944    7184    2838
CTETRA       968       1     170    4149      33    7008    2839    2840+
+           2841    2842    2673    2668
CTETRA       969       1     168     170    8031    6115    1157    1158+
+           1156    2843    2844    6518
CTETRA       970       1     170      33    6120    7003    2841    2845+
+           2846    2847    2667    2848
CTETRA       971       1     170      33    6119    6120    2841    1895+
+           1153    2846    2845    6569
CTETRA       972       1     168    4150     170    7007    2849    2850+
+           1157    2851    2852    2853
CTETRA       973       1     148     149    6196    6197     960     962+
+            959    2813    1923    6845
CTETRA       974       1     148     149    4120    5187     960    2525+
+           2534    1283    2526    2528
CTETRA       975       1     149     225    4109    4036    2082    2820+
+           2529    2524    2854    4567
CTETRA       976       1     214    7087    7088    4126    1642    7214+
+           1644    1648    1658    2855
CTETRA       977       1      67     173    6174     225    2662    2480+
+           1847    1825    2659    1846
CTETRA       978       1      67     172    6174     173    1838    1851+
+           1847    2662    1172    2480
CTETRA       979       1     190    7000    7006    7001    2856    7015+
+           1386    2857    7017    7016
CTETRA       980       1      96    7780     105     102    2858     852+
+            668     659     854     667
CTETRA       981       1     132     146    8024     102    1001    2859+
+           2548     851    2191    2543
CTETRA       982       1     183    7098    6167    6163    1304    2860+
+           1268    2861    1793    6728
CTETRA       983       1     186     184     224    6157    1265    2758+
+           1800    1266    1249    2767
CTETRA       984       1     224    6125    6080    7665    2862    6544+
+           2769    2863     519    2864
CTETRA       985       1     220     216    6123    6078    1690    1872+
+           2833    1692    1691    6527
CTETRA       986       1     224    4166    4142    7664    2762    4859+
+           2835    2865    2866    2074
CTETRA       987       1    7697    7698     247     219    7704    2867+
+           2868    2869    2870    2429
CTETRA       988       1    8132    5237    6028    8131    5287    2871+
+           6335    8138    5286    6986
CTETRA       989       1     247     219    7696    7697    2429    2872+
+           2873    2868    2869    7703
CTETRA       990       1       2    7697    5536    5521    2874    5831+
+           2875    2876    5828    5653
CTETRA       991       1     219    7869    8063    8064    1675    5130+
+           2877    2878    5129    8092
CTETRA       992       1     219    5506    7696    5521    2879    5825+
+           2872    2880    5596    5829
CTETRA       993       1     246    5912    7761    4130    2881    2882+
+           2883    2884    2885    4657
CTETRA       994       1     123    8193    6023    6076    2886    6370+
+           2887    2888    6375    6374
CTETRA       995       1      46     123    8033    6023    2889    2890+
+           2891    2892    2887    6371
CTETRA       996       1    7094    4021    7093    7504    2893    1641+
+           7232    7302    4697    7303
CTETRA       997       1    7008    4016    7675    8182    2675    2894+
+           7042    7041    4872    7678
CTETRA       998       1     246    8193    8008     169    2590    8060+
+           2389    2895    2896    2897
CTETRA       999       1     120     246     169     123    2898    2895+
+           2899     784    2900    2901
CTETRA      1000       1    5235    7689    8187    6035    5262    7691+
+           5263    2902    2903    6342
CTETRA      1001       1     231     236     212    4131    2904    2066+
+           2467    2462    2452    2453
CTETRA      1002       1     211    6151    6146    6147    2905    6665+
+           1907    1881    6664    6666
CTETRA      1003       1     211     231     212    4132    1913    2467+
+           1563    1891    1914    1892
CTETRA      1004       1      55     236     212     231    2457    2066+
+           2603    2464    2904    2467
CTETRA      1005       1     211     231    6146    6151    1913    1898+
+           1907    2905    2602    6665
CTETRA      1006       1     254    7675    4013    7004    2906    2907+
+           2908    2909    7029     343
CTETRA      1007       1      28     161    4182    4184    1369    1055+
+           1368     355    1461    4918
CTETRA      1008       1     167    5592    5298    5593    1116    2910+
+           2911    2912    5816    2913
CTETRA      1009       1     165     136     167    7913    2914    2915+
+           1115    2916    2917    2918
CTETRA      1010       1     118    5562      98     103     750     751+
+            742     745    2919     746
CTETRA      1011       1     167    7911     118    5578    2920    2921+
+           2922    2923    2924     754
CTETRA      1012       1      56    5915    5910    5909     490    5922+
+           2287     488    5921    5923
CTETRA      1013       1     118     167     103      99    2922    2925+
+            745     744    2926     747
CTETRA      1014       1     222    5916    5910    5915    2801    5925+
+           1746    2927    5924    5922
CTETRA      1015       1     167     103      99     136    2925     747+
+           2926    2915    2928    2929
CTETRA      1016       1     130    5236    5242    5237    2052    5251+
+           1865    2930    5253    5252
CTETRA      1017       1      15     226     227    7921    2334    1859+
+           2324    2312    2335    2931
CTETRA      1018       1     194     226     228      15    2309    1860+
+           2932    1410    2334    2318
CTETRA      1019       1     194     226    7921    7922    2309    2335+
+           2313    1414    2310    7948
CTETRA      1020       1     195     144     226    7923    2002    2329+
+           2311    2933    2934    2935
CTETRA      1021       1      68     227     226    8014    2936    1859+
+           1849    1839    2485    2937
CTETRA      1022       1     226    7923     144    8012    2935    2934+
+           2329    2599    5112    2600
CTETRA      1023       1     226     227    7921    8014    1859    2931+
+           2335    2937    2485    5108
CTETRA      1024       1      65     226    8012    8013    1831    2599+
+           2598     532    1850    8055
CTETRA      1025       1      23     254    4012      25    2786    2784+
+            331     334    2938     332
CTETRA      1026       1     188    4177    4176    4012    2679    4882+
+           2939    2783    4886    4875
CTETRA      1027       1      22      28    4184      24     351     355+
+            354     327    1361    1462
CTETRA      1028       1      28    4192      27    4187    1363    2940+
+            362     352    4943     356
CTETRA      1029       1      72     212    4136    4137    2059    2063+
+           2062    2720    1565    4695
CTETRA      1030       1    5184    6068    6168      73    2440    6734+
+           2941     559    2442    2750
CTETRA      1031       1    8118    5184    6068    6168    5227    2440+
+           6738    6737    2941    6734
CTETRA      1032       1     174     214    7088    4126    1607    1644+
+           1185    1647    1648    2855
CTETRA      1033       1      69    5189    4031    4028     553    2942+
+            541    2943    2944    4636
CTETRA      1034       1    5183      70      73    5184    1247    2443+
+           2441    5206     552     559
CTETRA      1035       1      69      70     251    4030     543    2447+
+           2945     544     545    2946
CTETRA      1036       1     112     133    7755    8190    1323    2947+
+           1394    1331    1330    7809
CTETRA      1037       1     131    7782     133    8190     842     863+
+           2948    2348    7810    1330
CTETRA      1038       1     202     106      26     133    2949    2950+
+           2951    2512     859    2952
CTETRA      1039       1     112     134      11     133    1322    1468+
+           2953    1323     861    2954
CTETRA      1040       1     201    7908     134    7907    2955    2956+
+           1471    1486    7934    2957
CTETRA      1041       1     134      11    7907    8028    1468    1487+
+           2957    2958    2959    5080
CTETRA      1042       1      10      11     134     133     284    1468+
+           1467    2511    2954     861
CTETRA      1043       1      98     103    5562     104     746    2919+
+            751     683     662    2960
CTETRA      1044       1     118     103    5577    5562     745    2961+
+           2962     750    2919    5772
CTETRA      1045       1    7909    5579    5594     201    2963    5821+
+           2964    2552    1476    2965
CTETRA      1046       1     165     139     136    7914    1111    2966+
+           2914    2967    2968    2969
CTETRA      1047       1     165    7914     166     139    2967    2970+
+           1112    1111    2968    1114
CTETRA      1048       1      42      40      44    4072     429    2971+
+            442     445     942     446
CTETRA      1049       1    8022     135     101     140     866     872+
+           2803    1918     882    2802
CTETRA      1050       1      99    8022    7912     136     645    5093+
+           2972    2929     867    2973
CTETRA      1051       1    8023      99    8022    7912     921     645+
+           8045    5090    2972    5093
CTETRA      1052       1     165    7913     167    7969    2916    2918+
+           1115    2974    5039    2975
CTETRA      1053       1     135    8021     136     139     869     870+
+            868     879    2976    2966
CTETRA      1054       1     136     139    8021    7914    2966    2976+
+            870    2969    2968    5094
CTETRA      1055       1    6099    7000      25      27    2977    2978+
+            361     363    2979     364
CTETRA      1056       1     190    7001     193    6025    2857    2220+
+           1385    2980    2981    2365
CTETRA      1057       1     112    8027    6089    8028     713    6493+
+           1325    2982    8040    6504
CTETRA      1058       1     111    6096    6098    6095    1376    6408+
+           1319    2346    6407    6406
CTETRA      1059       1     190    7000      27    7005    2856    2979+
+           1379    1390    7012     350
CTETRA      1060       1      27    6099    7000    6100     363    2977+
+           2979    1380    6426    2983
CTETRA      1061       1      44      41     130    4075    2984     830+
+           2985    2986    2047    2987
CTETRA      1062       1      42      41      40    6055     447     421+
+            429     432     426     424
CTETRA      1063       1      42    6058      41    6055     438     448+
+            447     432    6336     426
CTETRA      1064       1      44    4075    5241    7826    2986    2988+
+            443    2989    4400    5270
CTETRA      1065       1      44    4072    4051    4052     446    4375+
+           2990     444    4373    4376
CTETRA      1066       1    8017     154    6204     182    2991    2361+
+           6880    2992    1239    2993
CTETRA      1067       1     154     182    8017      18    1239    2992+
+           2991    2994    2995    2996
CTETRA      1068       1      74     153     108    7774    1008    1021+
+           1022    2804    1027    1026
CTETRA      1069       1     154      19     108    7772    2997    2998+
+           2999    1241    3000    3001
CTETRA      1070       1     154     180     182    4079    2362    3002+
+           1239    1240    2366    1237
CTETRA      1071       1     180     154     182    6204    2362    1239+
+           3002    2364    2361    2993
CTETRA      1072       1     140    7689    5235    6035    2411    5262+
+           3003    3004    2903    2902
CTETRA      1073       1    6214    5239     156    6026    3005    3006+
+           3007    6923    2193    3008
CTETRA      1074       1     232    6153    6073     244    2379    6676+
+           3009    2381    2378    2264
CTETRA      1075       1     116     142      51     206    2245    3010+
+           3011    2249    2248    3012
CTETRA      1076       1      48    7765     142      51     486     899+
+            898     470     487    3010
CTETRA      1077       1     142     206    8009     141    2248    3013+
+           3014    3015    2001    3016
CTETRA      1078       1     142      51    7765    7764    3010     487+
+            899    2253    3017    7802
CTETRA      1079       1     233    7763    7764    4135    2252    7801+
+           2254    1909    4670    4672
CTETRA      1080       1     231     142    6074    8010    2256    2267+
+           2266    2606    3018    6367
CTETRA      1081       1    5238    6061     156     245    3019    3020+
+           3021    3022    3023    3024
CTETRA      1082       1    4082    4083     245     156    4423    3025+
+           3026    2354    2353    3024
CTETRA      1083       1    6061     107    6212     156    2280    2807+
+           6926    3020    2808    2806
CTETRA      1084       1     245     156    5238    5243    3024    3021+
+           3022    2269    3027    5256
CTETRA      1085       1     245    6061     156     107    3023    3020+
+           3024    3028    2280    2808
CTETRA      1086       1     189    4173    4019    4018    3029    4849+
+           1313    2114    4847    4731
CTETRA      1087       1     189    7096    7095    6165    3030    7238+
+           3031    3032    3033    3034
CTETRA      1088       1     189    4018    4017    4171    2114    4727+
+           2722    3035    4841    4840
CTETRA      1089       1     189    6162    6165    6160    2232    6719+
+           3032    2124    6703    6718
CTETRA      1090       1      13     182      18    8017    3036    2995+
+            316    3037    2992    2996
CTETRA      1091       1      13     227    8015    7920    3038    2487+
+           3039    3040    3041    5106
CTETRA      1092       1      15     227      13    7920    2324    3038+
+            298    2333    3041    3040
CTETRA      1093       1      13     239    8015     227    3042    2639+
+           3039    3038    3043    2487
CTETRA      1094       1    4136    7680     236     212    2061    2065+
+           2454    2063    2060    2066
CTETRA      1095       1    7081    7517    7516    4101    7328    7567+
+           7327    2175    4507    4506
CTETRA      1096       1      15      20      13     227    2321     318+
+            298    2324    2325    3038
CTETRA      1097       1      12      17      16    5559     309     308+
+            307    3044    3045    3046
CTETRA      1098       1      13      12    7918      18     294     300+
+            302     316     310    3047
CTETRA      1099       1      13      18    7918    8017     316    3047+
+            302    3037    2996    5102
CTETRA      1100       1     250      26     248    5534    3048    3049+
+           3050    3051    3052    3053
CTETRA      1101       1     247     248       3    5550    2422    2419+
+           2423    3054    3055    2745
CTETRA      1102       1     202     133     248      10    2512    2515+
+           3056    2506    2511    2425
CTETRA      1103       1     248    5549      26     202    3057    3058+
+           3049    3056    3059    2951
CTETRA      1104       1      10       4     201      11     286    1480+
+           1470     284     287    1469
CTETRA      1105       1     202    5550      10     248    2751    2746+
+           2506    3056    3055    2425
CTETRA      1106       1     220     192    4159    7102    1711    3060+
+           3061    1700    3062    3063
CTETRA      1107       1      47    6122    6124    6121    1721    6537+
+           2076     457    6538    6536
CTETRA      1108       1      34    6122    6121    6127    1722    6538+
+            463    1719    6555    6554
CTETRA      1109       1      45    7760     122      46    1130     787+
+            773     452    3064    3065
CTETRA      1110       1     174     215     214    4123    1609    1608+
+           1607    1646    1614    1613
CTETRA      1111       1     174    4115     148    4123    1175    1162+
+           2445    1646    4634    1166
CTETRA      1112       1    7004      25      22    4013    3066     333+
+            342     343    3067     335
CTETRA      1113       1     148    6199    6196    8119    2444    6859+
+            959    3068    6861    6862
CTETRA      1114       1     174    6199    6198    6197    1180    6857+
+           1610    3069    6858    6854
CTETRA      1115       1    7714    3933    6217    7713    3983    3070+
+           6937    7720    3982    6941
CTETRA      1116       1    6199      70    6192    5183    1181    1178+
+           6856    3071    1247    2456
CTETRA      1117       1     205      49     143     141    1536     900+
+           1541    1537    1539    1543
CTETRA      1118       1    3938    3937    4046    7724    3946    3072+
+           3073    3968    3967    4518
CTETRA      1119       1    5509    5524      82      50    5607     582+
+           3074    3075    3076    3077
CTETRA      1120       1      50      49      82      51     468    2643+
+           3077     472     471    3078
CTETRA      1121       1     142     141      51     206    3015    1538+
+           3010    2248    2001    3012
CTETRA      1122       1     205     176      82     206    1524    1528+
+           1527    1544    1546    3079
CTETRA      1123       1      82     176     117     206    1528    3080+
+            738    3079    1546    3081
CTETRA      1124       1      82     176    5538     117    1528    1525+
+            735     738    3080     739
CTETRA      1125       1     116     206      82     117    2249    3079+
+            740     741    3081     738
CTETRA      1126       1      82     205    5539    5538    1527    3082+
+           2644     735    1526    5660
CTETRA      1127       1     169      91     176      21    2301    2296+
+           2300    1596    2297    2299
CTETRA      1128       1     175     176      91    5568    1192    2296+
+           1187    1194    1193    2295
CTETRA      1129       1     176     117    5553    5538    3080    3083+
+           3084    1525     739    5702
CTETRA      1130       1     169     176     117      21    2300    3080+
+           3085    1596    2299    3086
CTETRA      1131       1     176    5553      21    5568    3084    3087+
+           2299    1193    5745    2298
CTETRA      1132       1    7763    7762    8008     206    7799    2386+
+           2259    2250    3088    3089
CTETRA      1133       1     116    7863      50      51    3090    3091+
+           3092    3011    3093     472
CTETRA      1134       1     113    7865     116     120     724     730+
+            729    3094    3095    3096
CTETRA      1135       1     116     120    7865    7762    3096    3095+
+            730    3097    3098    4974
CTETRA      1136       1     116      51    7764    7863    3011    3017+
+           3099    3090    3093    4978
CTETRA      1137       1     116     142    7764      51    2245    2253+
+           3099    3011    3010    3017
CTETRA      1138       1     133    7782     106    7845     863     864+
+            859    3100    5014    3101
CTETRA      1139       1     106      97     202      26     672    3102+
+           2949    2950    3103    2951
CTETRA      1140       1     250     133      26     106    3104    2952+
+           3048    3105     859    2950
CTETRA      1141       1     133    7872     249    7755    3106    3107+
+           2516    2947    4960    3108
CTETRA      1142       1     105     252     134     106    2541    2550+
+            860     671    2547     862
CTETRA      1143       1     112      11     134    8028    2953    1468+
+           1322    2982    2959    2958
CTETRA      1144       1     250     133    8189    7872    3104    3109+
+           3110    2436    3106    7873
CTETRA      1145       1     238     197    6094    5972    2178    2736+
+           3111    3112    1958    3113
CTETRA      1146       1     238     243     127    6102    2179    2586+
+           2184    2190    2189    3114
CTETRA      1147       1     127    4002    4007    4008    2185    4245+
+           2580    2584    4246    4248
CTETRA      1148       1     127    6102    6112    6103    3114    6480+
+            804    1743    6442    6478
CTETRA      1149       1     243    7062    4003    7061    2182    3115+
+           3116    3117    7136    3118
CTETRA      1150       1     243    7061    4003    4009    3117    3118+
+           3116    3119    3120    4250
CTETRA      1151       1      21       2    5551    5552    1606    3121+
+            322    3122    3123    5697
CTETRA      1152       1       2     117    5552      21    3124    3125+
+           3123    1606    3086    3122
CTETRA      1153       1    5537       2     117    5552    3126    3124+
+           3127    5699    3123    3125
CTETRA      1154       1      21     121       2     117    1605    1142+
+           1606    3086    3128    3124
CTETRA      1155       1     117     122      21     121    3129    3130+
+           3086    3128     777    1605
CTETRA      1156       1     121     120     117     122     766    3131+
+           3128     777     783    3129
CTETRA      1157       1     169     176     206     117    2300    1546+
+           3132    3085    3080    3081
CTETRA      1158       1      21     117    5552    5553    3086    3125+
+           3122    3087    3083    5700
CTETRA      1159       1     176     117      21    5553    3080    3086+
+           2299    3084    3083    3087
CTETRA      1160       1     156    6026    6203    6214    3008    6888+
+           1032    3007    6923    6921
CTETRA      1161       1      92      21       5      90    1597    3133+
+            617     613    1595     616
CTETRA      1162       1    5544      16    5559    5543    3134    3046+
+           5720    5675    3135    5719
CTETRA      1163       1       6     166    7966    7916    3136    3137+
+           3138    3139    3140    5045
CTETRA      1164       1    5239    8129    7689    6026    5282    5281+
+           5279    2193    6233    1954
CTETRA      1165       1    5299       6    7966    7965     272    3138+
+           5355    5354     513    7996
CTETRA      1166       1       6     166     155      17    3136    3141+
+           3142    3143    3144    3145
CTETRA      1167       1       6     166    7916     155    3136    3140+
+           3139    3142    3141    3146
CTETRA      1168       1      74     138     139     155    1011     880+
+           3147    1023    3148    3149
CTETRA      1169       1      74    7852     137    7775    3150    3151+
+           2039    1007    5000    3152
CTETRA      1170       1      75     137    7852    7851    3153    3151+
+           3154    3155    3156    7894
CTETRA      1171       1      79    5546     104    5531    2027    3157+
+           2037    2025    5683    2194
CTETRA      1172       1      39    7073    4078    4047    1761    3158+
+            974    2049    3159    4497
CTETRA      1173       1    5544      76    5545      17    3160    3161+
+           5678    3162    3163    3164
CTETRA      1174       1      74     139     138     137    3147     880+
+           1011    2039    2810     887
CTETRA      1175       1      74     137      77     139    2039    2041+
+            572    3147    2810    3165
CTETRA      1176       1      79     104      77     137    2037    3166+
+            571    2040    3167    2041
CTETRA      1177       1      78    5545      77    5546    3168    3169+
+            569    2028    5681    2029
CTETRA      1178       1    4191    7004    4013    7838     344     343+
+           4938    4939    7032    4894
CTETRA      1179       1    5549     202      97      26    3059    3102+
+           3170    3058    2951    3103
CTETRA      1180       1      97      38      26     106     638     407+
+           3103     672     673    2950
CTETRA      1181       1     118      97     252     102     760    3171+
+           2535    2537    3172    2538
CTETRA      1182       1     215    6178    6197    6194    1630    6841+
+           1629    1618    6836    6842
CTETRA      1183       1      96     106      97     102     669     672+
+            637     659     670    3172
CTETRA      1184       1     105     252    8025    8026    2541    3173+
+            847    3174    3175    8042
CTETRA      1185       1      97     119     252     202    3176    2546+
+           3171    3102    1474    2551
CTETRA      1186       1    5185    7766    3990    4127    3177    4288+
+           1530    2469    4714    4716
CTETRA      1187       1     105     131    5964    4010     840    2687+
+           2693     838     841    2688
CTETRA      1188       1      95      79      75    8082    2017    2021+
+           2024    3178    3179    3180
CTETRA      1189       1      76    7853    8079    8080     568    5162+
+           1783    2828    5161    8108
CTETRA      1190       1      74      17      76     108    3181    3163+
+            566    1022     690    1770
CTETRA      1191       1     154    8018     155      18    1015    1019+
+           1018    2994    3182    3183
CTETRA      1192       1      74     108     155      17    1022    1020+
+           1023    3181     690    3145
CTETRA      1193       1     154    7772     182      19    1241    1238+
+           1239    2997    3000    3184
CTETRA      1194       1    7855     110    7856      19    3185    1779+
+           7890    3186     695    1781
CTETRA      1195       1      16     109      20    5528     693    3187+
+            320    3188    3189    3190
CTETRA      1196       1    7724    3938    7725    4043    3968    3969+
+           7730    4523    3191    4524
CTETRA      1197       1     108      19    7855    7772    2998    3186+
+           3192    3001    3000    4994
CTETRA      1198       1    5181    5182    6176    8121    5198     824+
+            823    5233    5232    6863
CTETRA      1199       1     156    5239    5238    5244    3006    5261+
+           3021    3193    5260    5259
CTETRA      1200       1    6061      53     245    5238    2279    2268+
+           3023    3019    3194    3022
CTETRA      1201       1     156    6214    5238    5239    3007    3195+
+           3021    3006    3005    5261
CTETRA      1202       1     156    5238    6214    6061    3021    3195+
+           3007    3020    3019    6927
CTETRA      1203       1     113     120     116     117    3094    3096+
+            729     737    3131     741
CTETRA      1204       1      88    5540     143    5541    2651    2642+
+           2332    2775    5666    2772
CTETRA      1205       1      49    5540      88    5525    2652    2651+
+           2650    3196    5665    3197
CTETRA      1206       1     144      87     143     226    2648     904+
+           2005    2329    1833    2326
CTETRA      1207       1      49      87      88     143     903     600+
+           2650     900     904    2332
CTETRA      1208       1     205      49    5539    5540    1536    2645+
+           3082    2641    2652    5663
CTETRA      1209       1      83     226      68     227    1834    1849+
+            586    1856    1859    2936
CTETRA      1210       1    7838    7004    4013    7675    7032     343+
+           4894    7031    7029    2907
CTETRA      1211       1    5556    5541      86     143    5711    2773+
+           3198    2778    2772    2774
CTETRA      1212       1      87     143     226      88     904    2326+
+           1833     600    2332    2331
CTETRA      1213       1     161    7056    6105    7057    1456    3199+
+           1459    1074    7121    3200
CTETRA      1214       1      22    4187      28      27     353     352+
+            351     347     356     362
CTETRA      1215       1      28      24     161    4184    1361    1452+
+           1369     355    1462    1461
CTETRA      1216       1       7       8     121    7758     277    1673+
+            779    3201    3202    3203
CTETRA      1217       1      45      46    8032    6117     452    3204+
+           3205     459     458    6636
CTETRA      1218       1     117     121       2     115    3128    1142+
+           3124     762     767    1682
CTETRA      1219       1     122     123      46    7760     780    2889+
+           3065     787     786    3064
CTETRA      1220       1     137     136     101     103     874     871+
+            875    3206    2928     661
CTETRA      1221       1     165    7968     166    7914    1129    3207+
+           1112    2967    5041    2970
CTETRA      1222       1     104     103      77     137     662    3208+
+           3166    3167    3206    2041
CTETRA      1223       1      95    5517    5516    5532     703    5640+
+           2023    2195    5639    5638
CTETRA      1224       1      79      75    7851     137    2021    3155+
+           3209    2040    3153    3156
CTETRA      1225       1      98    5547     104    5562    3210    3211+
+            683     751    5729    2960
CTETRA      1226       1      93     100     146      99     647     931+
+            933     646     643    3212
CTETRA      1227       1      93      96    7848      94     656     715+
+            633     631     677     632
CTETRA      1228       1      38     104      98    5532     681     683+
+            642    3213    2196    3214
CTETRA      1229       1      98     104    5547    5532     683    3211+
+           3210    3214    2196    5686
CTETRA      1230       1    8163    6100    7000    6086    6428    2983+
+           7052    6431    6430    3215
CTETRA      1231       1      93      96    7779    7848     656     655+
+            654     633     715    5008
CTETRA      1232       1      93      96      94      38     656     677+
+            631     680     639     678
CTETRA      1233       1     101     137    7850    7777     875    3216+
+           2019     916    3217    5004
CTETRA      1234       1      93      98      96      38     682     640+
+            656     680     642     639
CTETRA      1235       1      93    7778     101    7849    3218     919+
+            649     651    5006     652
CTETRA      1236       1      97     119     202    5564    3176    1474+
+           3102    3219    3220    3221
CTETRA      1237       1     173    4107    4113    4111    2654    4570+
+           2663    1173    4564    4568
CTETRA      1238       1     133    7845    8190    7782    3100    5016+
+           1330     863    5014    7810
CTETRA      1239       1     201    7907     134      11    1486    2957+
+           1471    1469    1487    1468
CTETRA      1240       1    7699    7698       1      10    7705     256+
+            262    2508    2747     283
CTETRA      1241       1     131    8027     134    8026    3222    1320+
+           3223    3224    8041    3225
CTETRA      1242       1      93      99     146     102     646    3212+
+            933     657    3226    2191
CTETRA      1243       1      99    8024     102    7911    3227    2543+
+           3226    3228    5088    3229
CTETRA      1244       1      99    8024     146     102    3227    2859+
+           3212    3226    2543    2191
CTETRA      1245       1     167      99    7911    7912    2926    3228+
+           2920    3230    2972    7938
CTETRA      1246       1     136    8022    7912    7913     867    5093+
+           2973    2917    5092    7939
CTETRA      1247       1     103     166      77     139    1113    3231+
+           3208    1110    1114    3165
CTETRA      1248       1    5563     119     118      97    3232     757+
+            748     759    3176     760
CTETRA      1249       1     187    4015    4158    4014    3233    4783+
+           1277    1281    4785    4784
CTETRA      1250       1    6144    6142    6139      31    6624    6613+
+           6623    3234    3235    3236
CTETRA      1251       1     253    4016    4148    4015    2685    4735+
+           2671    2682    4737    4736
CTETRA      1252       1     253    4148    4158    4015    2671    4786+
+           2670    2682    4736    4783
CTETRA      1253       1     254    4013    7675    4177    2908    2907+
+           2906    2678    4884    3237
CTETRA      1254       1    7537     124    7061    7060    1296    3238+
+           7368    7369     791    7133
CTETRA      1255       1      33    7674    8166    7003    2665    7045+
+           3239    2667    7043    7046
CTETRA      1256       1     146    6039    6032    6033    3240    6242+
+           1000    3241    6241    6243
CTETRA      1257       1     140    6034    6031    6035    3242    6344+
+           3243    3004    6271    6343
CTETRA      1258       1     136     135     101    8022     868     872+
+            871     867     866    2803
CTETRA      1259       1    7674    6135    6136    6083    2790    6589+
+           2791    3244    6588    6590
CTETRA      1260       1     100    7778    4067    7777     918    4348+
+            923     915    7794    4347
CTETRA      1261       1     249       8    7757    7870    3245    3246+
+           3247    2430    3248    4964
CTETRA      1262       1     247     250     248    5535    2433    3050+
+           2422    3249    3250    3251
CTETRA      1263       1     112     133     249    7755    1323    2516+
+           3252    1394    2947    3108
CTETRA      1264       1     249       9       3      11    3253     281+
+           2420    3254    2214     288
CTETRA      1265       1     219     249       8       3    2431    3245+
+           1671    3255    2420     282
CTETRA      1266       1     247    7871     249    7872    3256    3257+
+           2424    2435    7874    3107
CTETRA      1267       1     253    4015    4177    4016    2682    4878+
+           2676    2685    4737    4879
CTETRA      1268       1      74     137     138    7775    2039     887+
+           1011    1007    3152    1010
CTETRA      1269       1      79    8082    7850    7851    3179    5168+
+           2015    3209    5165    7895
CTETRA      1270       1    5530    5531      79    5515    5633    2025+
+           2032    5631    5634    2035
CTETRA      1271       1      74     155     139      77    1023    3149+
+           3147     572    3258    3165
CTETRA      1272       1     154     108     155     153    2999    1020+
+           1018    1014    1021    1017
CTETRA      1273       1     135    7776     137    7777     888     890+
+            873     885    7790    3217
CTETRA      1274       1      74      75     137    7852     563    3153+
+           2039    3150    3154    3151
CTETRA      1275       1     175    7956    7955    7927    3259    8006+
+           1189    3260    5068    5067
CTETRA      1276       1     116      82     206      51     740    3079+
+           2249    3011    3078    3012
CTETRA      1277       1     206     120     116    7762    3261    3096+
+           2249    3088    3098    3097
CTETRA      1278       1      50     114    5399    8069    3262    3263+
+           3264    3265    3266    5423
CTETRA      1279       1     117     120     116     206    3131    3096+
+            741    3081    3261    2249
CTETRA      1280       1     206     141    7925    8009    2001    3267+
+           3268    3013    3016    5119
CTETRA      1281       1      55     231     142    7765    2464    2256+
+            897     896    2463     899
CTETRA      1282       1     206     142     233    7763    2248    2251+
+           3269    2250    2247    2252
CTETRA      1283       1      77     166    5576    5560    3231    1123+
+           3270    3271    3272    5768
CTETRA      1284       1     167    5593    5578    5577    2912    5818+
+           2923    3273    5817    5773
CTETRA      1285       1       6    7917     155    7916    3274    3275+
+           3142    3139    7943    3146
CTETRA      1286       1      18    7918    8017    7917    3047    5102+
+           2996    3276    7944    5103
CTETRA      1287       1     166      17    5560      77    3144    3277+
+           3272    3231    3278    3271
CTETRA      1288       1     166     155      77     139    3141    3258+
+           3231    1114    3149    3165
CTETRA      1289       1      89    5525      50      49    3279    3280+
+           2338    2649    3196     468
CTETRA      1290       1      83      86      85      88     593     595+
+            592     598    2776     599
CTETRA      1291       1      85    5526      89      88    3281    3282+
+            601     599    3283     603
CTETRA      1292       1      89    7860    7861    8072    3284    7885+
+           2336    2342    5148    5145
CTETRA      1293       1      48      49     141     143     467    1539+
+            911     901     900    1543
CTETRA      1294       1      86    5527      85    5526    3285    3286+
+            595    3287    5617    3281
CTETRA      1295       1      89    8071    5403    8072    2339    5455+
+           2341    2342    8100    5447
CTETRA      1296       1    7081    6205    7082    7409    3288    2499+
+           7196    7194    6896    7195
CTETRA      1297       1       9       5    7905    7904     293     292+
+            291    1603    1601    7931
CTETRA      1298       1       9    7905      11    8029     291    2517+
+           2214    2217    5079    2218
CTETRA      1299       1       5       2      92       1    3289    1140+
+            617     267     258    3290
CTETRA      1300       1       9    7904    8031      92    1603    5074+
+           2513    1604    1602    3291
CTETRA      1301       1       9     193     249     168    2213    3292+
+           3253    1131    2219    3293
CTETRA      1302       1     168       7       9    8031    1132     278+
+           1131    1156    1155    2513
CTETRA      1303       1    3934    3935      57    6189    3957    3294+
+           3295    3296    2211     509
CTETRA      1304       1     163     179    6179    6181    1206    1219+
+           1218    1202    1810    6778
CTETRA      1305       1      57    3940      58    3935     494     496+
+            493    3294    3956    2212
CTETRA      1306       1      57      61    4105    4104     506    3297+
+            491     504     514    4546
CTETRA      1307       1     162    6187    7083    6062    1081    3298+
+           1087    1086    6797    1089
CTETRA      1308       1    6063    6189      60    6188    6815     508+
+           2495    6804    6811    2496
CTETRA      1309       1    5566      21    5567      90     321     323+
+           5740    2306    1595    3299
CTETRA      1310       1    7698    7697    5536       2    7704    5831+
+           5830     257    2874    2875
CTETRA      1311       1       1    5566       5    5551    2514    2307+
+            267     263    5739    3300
CTETRA      1312       1     172     173    4034    4111    1172    3301+
+           3302    1169    1173    4550
CTETRA      1313       1    5521     219     218       2    2880    3303+
+           3304    2876    3305    1683
CTETRA      1314       1    5522       2    5521     218    2415    2876+
+           5597    1676    1683    3304
CTETRA      1315       1     219       8       2       3    1671     764+
+           3305    3255     282     261
CTETRA      1316       1     122     120     117     169     783    3131+
+           3129    1136    2899    3085
CTETRA      1317       1       5       4       1    7905     269     266+
+            267     292    3306     290
CTETRA      1318       1      14    7920    7963    7962    2476    5054+
+           3307    2475    5053    7999
CTETRA      1319       1     205      82      49      51    1527    2643+
+           1536    1535    3078     471
CTETRA      1320       1      54      55    5180    6027     483    2458+
+           3308    2595    2609    3309
CTETRA      1321       1      83     228      88     226    1858    2330+
+            598    1834    1860    2331
CTETRA      1322       1    6065    7711    3935    7684    6356    3978+
+           1963    1960    3977    3975
CTETRA      1323       1      48      87      54    7766     902    3310+
+            480     478    3311     479
CTETRA      1324       1      85    8073      89    5398    1664    1663+
+            601    3312    5443    3313
CTETRA      1325       1     144      54    8011     141     912     892+
+           3314     914     891     893
CTETRA      1326       1     144    7924     141    8011    2014    2779+
+            914    3314    5114     893
CTETRA      1327       1      15    5558      20    5557    3315    3316+
+           2321    2317    5715    2320
CTETRA      1328       1    7768      87      65      83    1854    1832+
+            538    3317     597    1835
CTETRA      1329       1      55     141     142    8010     894    3015+
+            897    2605    3318    3018
CTETRA      1330       1      55      48     141      54     481     911+
+            894     483     480     891
CTETRA      1331       1    7834    4016    7008    8182    4741    2675+
+           7040    7841    4872    7041
CTETRA      1332       1     142    8010     141    8009    3018    3318+
+           3015    3014    8058    3016
CTETRA      1333       1    5579     119    7909    5578    1475    2545+
+           2963    5776     755    3319
CTETRA      1334       1     118     167    5578    5577    2922    2923+
+            754    2962    3273    5773
CTETRA      1335       1       5       1      92       9     267    3290+
+            617     293     279    1604
CTETRA      1336       1       4    7701    5305    7977    3320    3321+
+           1489    3322    3323    5392
CTETRA      1337       1       9      11       1       3    2214     285+
+            279     281     288     259
CTETRA      1338       1     168     249       9       8    3293    3253+
+           1131    1133    3245     280
CTETRA      1339       1    6184    6065    7711    3935    6782    6356+
+           6783    2203    1963    3978
CTETRA      1340       1     193    7755     249    7756    1393    3108+
+           3292    2225    7807    3324
CTETRA      1341       1      16    5529     110    5528    3325    3326+
+            694    3188    5625    3327
CTETRA      1342       1      67    6174    8014    8013    1847    6868+
+           1836     533    6870    8054
CTETRA      1343       1      12       6      18      17     666    3328+
+            310     309    3143     312
CTETRA      1344       1      78      17      77    5545    3329    3278+
+            569    3168    3164    3169
CTETRA      1345       1     166     155      17      77    3141    3145+
+           3144    3231    3258    3278
CTETRA      1346       1       6      17     155      18    3143    3145+
+           3142    3328     312    3183
CTETRA      1347       1      17    5560      77    5545    3277    3271+
+           3278    3164    5723    3169
CTETRA      1348       1    5299     166       6    5590    3330    3136+
+            272    3331    3332    3333
CTETRA      1349       1     155      18    8018    7917    3183    3182+
+           1019    3275    3276    5100
CTETRA      1350       1     155    8019     139    7915    3334    3335+
+           3149    3336    5099    3337
CTETRA      1351       1     110     108    7855    7854    1768    3192+
+           3185    1765    1769    7891
CTETRA      1352       1     138     155    8019     139    3148    3334+
+           3338     880    3149    3335
CTETRA      1353       1     108     155      18     154    1020    3183+
+            691    2999    1018    2994
CTETRA      1354       1     109     239      20      84    3339    3340+
+           3187    3341    2633    3342
CTETRA      1355       1      84     239      20     227    2633    3340+
+           3342    3343    3043    2325
CTETRA      1356       1      18      12      16      13     310     307+
+            311     316     294     313
CTETRA      1357       1      90    8192    7902     169     611    7928+
+           1599    1594    2305    3344
CTETRA      1358       1     141      51     206     205    1538    3012+
+           2001    1537    1535    1544
CTETRA      1359       1     124     243    4009    7061    3345    3119+
+           3346    3238    3117    3120
CTETRA      1360       1     175     176     177     206    1192    1198+
+           1197    3347    1546    1545
CTETRA      1361       1     175    5584    5583    5301    3348    5789+
+           3349    1190    3350    2308
CTETRA      1362       1     116    7865     114    7864     730     726+
+            731    3351    7881    3352
CTETRA      1363       1     113      82     116     114     733     740+
+            729     716     734     731
CTETRA      1364       1    5537     115     117       2    3353     762+
+           3127    3126    1682    3124
CTETRA      1365       1     113    7865     120     115     724    3095+
+           3094     718     725     765
CTETRA      1366       1    8165    7002    8164    6116    7048    7049+
+           8170    6521    3354    6519
CTETRA      1367       1     187    6144    6145    7432    3355    6629+
+           1289    3356    6631    6630
CTETRA      1368       1      21       2      92       5    1606    1140+
+           1597    3133    3289     617
CTETRA      1369       1     169    8033     123    8193    1135    2890+
+           2901    2896    8034    2886
CTETRA      1370       1    7760     120     121     122    3357     766+
+           3358     787     783     777
CTETRA      1371       1     169     123     246    8193    2901    2900+
+           2895    2896    2886    2590
CTETRA      1372       1     120     169     206     117    2899    3132+
+           3261    3131    3085    3081
CTETRA      1373       1     116      50      82      51    3092    3077+
+            740    3011     472    3078
CTETRA      1374       1     120    7866     115    7865    3359    3360+
+            765    3095    7880     725
CTETRA      1375       1     120    7867     115    7866     769     768+
+            765    3359    7879    3360
CTETRA      1376       1      48      55     141     142     481     894+
+            911     898     897    3015
CTETRA      1377       1     116     114      50    7864     731    3262+
+           3092    3351    3352    3361
CTETRA      1378       1     175      91    7927    7955    1187    2304+
+           3260    1189    1188    5067
CTETRA      1379       1     141    7924    8010    8011    2779    5117+
+           3318     893    5114    8057
CTETRA      1380       1     116    7864    7764    7763    3351    4979+
+           3099    2246    4976    7801
CTETRA      1381       1    6136    6137    7674    8166    6593    3362+
+           2791    6592    6591    7045
CTETRA      1382       1      48    7861    7766    7862    3363    4982+
+            478     485    7884    4983
CTETRA      1383       1     199    7521    7520    4098    3364    7563+
+           3365    3366    4486    4488
CTETRA      1384       1      48      89      49      87    3367    2649+
+            467     902     602     903
CTETRA      1385       1    5524    5509    5525      50    5607    5610+
+           5609    3076    3075    3280
CTETRA      1386       1     126    3994     223    4180    2582    3368+
+           1749    2555    4910    2556
CTETRA      1387       1      12    5574       6      17    2479    3369+
+            666     309    3370    3143
CTETRA      1388       1      74    7774     108    7853    2804    1026+
+           1022     565    4998    3371
CTETRA      1389       1      16     108      18      19     689     691+
+            311     315    2998     317
CTETRA      1390       1      76    5544    5545    5529    3160    5678+
+           3161    3372    5677    5679
CTETRA      1391       1       6     155    7917      18    3142    3275+
+           3274    3328    3183    3276
CTETRA      1392       1     135    6026     138    5239    1951    3373+
+            876    2192    2193    3374
CTETRA      1393       1     192    4159    7103    4161    3060    3375+
+           1346    1343    4800    1345
CTETRA      1394       1    5575      17     166    5574    3376    3144+
+           3377    5764    3370    3378
CTETRA      1395       1    5574    5559    5575      17    5763    5765+
+           5764    3370    3045    3376
CTETRA      1396       1     166     155     139    7915    3141    3149+
+           1114    3379    3336    3337
CTETRA      1397       1     110    5410    5514    5412    1775    3380+
+           1786    1784    5504    1788
CTETRA      1398       1     139    7914    7915    8020    2968    7941+
+           3337     881    5097    5096
CTETRA      1399       1     166    5576    5560    5575    1123    5768+
+           3272    3377    5767    5766
CTETRA      1400       1    7608    5294    5586    7607    5311    1407+
+           5849    7614    5310    5850
CTETRA      1401       1      77      74      17      78     572    3181+
+           3278     569     573    3329
CTETRA      1402       1    3993    4082    5244     138    4421    3381+
+           2092    2809    1012    3382
CTETRA      1403       1       7    8032      92    8031    3383    1160+
+           1141    1155    8036    3291
CTETRA      1404       1     175     177    5290    7957    1197    3384+
+           3385    3386    3387    5307
CTETRA      1405       1     116      50     114      82    3092    3262+
+            731     740    3077     734
CTETRA      1406       1    7762     246     169     120    2387    2895+
+           3388    3098    2898    2899
CTETRA      1407       1    7762     116     206    7763    3097    2249+
+           3088    7799    2246    2250
CTETRA      1408       1      50      49    5524      82     468    2646+
+           3076    3077    2643     582
CTETRA      1409       1     246    7761     120    7762    2883     785+
+           2898    2387    7800    3098
CTETRA      1410       1     206    7926    7927    8008    3389    7953+
+           3390    3089    5121    5120
CTETRA      1411       1      13     239      19     182    3042    3391+
+            314    3036    2147    3184
CTETRA      1412       1     229    6173    6065    8015    2488    6786+
+           1961    2486    6865    6354
CTETRA      1413       1    7977    7701       5       4    3323    3392+
+           3393    3322    3320     269
CTETRA      1414       1     122      92      21     121    1137    1597+
+           3130     777    1143    1605
CTETRA      1415       1     169    8192    7902    8033    2305    7928+
+           3344    1135    5071    5070
CTETRA      1416       1       3    7698       2     219     260     257+
+            261    3255    2870    3305
CTETRA      1417       1      10      11     133     249     284    2954+
+           2511    2426    3254    2516
CTETRA      1418       1     249       3       9       8    2420     281+
+           3253    3245     282     280
CTETRA      1419       1     250     133    7845    8189    3104    3100+
+           3394    3110    3109    7901
CTETRA      1420       1     219    7869       8    7870    1675    1674+
+           1671    2428    7876    3248
CTETRA      1421       1     247     249    7871    7870    2424    3257+
+           3256    2427    2430    7875
CTETRA      1422       1    7698       1      10       3     256     283+
+           2747     260     259     289
CTETRA      1423       1     134    8027    7907    7908    1320    5083+
+           2957    2956    5082    7934
CTETRA      1424       1     193    8030       9    8029    2229    2231+
+           2213    2216    8038    2217
CTETRA      1425       1     247     248    5550    5535    2422    3055+
+           3054    3249    3251    5695
CTETRA      1426       1     109    5411      85    5512    1771    3395+
+           3396    3397    3398    3399
CTETRA      1427       1     109    5528     110    5513    3189    3327+
+            696    3400    5623    1776
CTETRA      1428       1      75      76    5530    5515     567    3401+
+           2033    2036    3402    5631
CTETRA      1429       1     109     110    5411    5513     696    1772+
+           1771    3400    1776    1778
CTETRA      1430       1     215     149     217    4119    2812    1924+
+           1627    3403    2531    2532
CTETRA      1431       1     109      19    7771    7856     692    3404+
+           3405    1780    1781    4992
CTETRA      1432       1    7080    7079    6219    7407    7190    3406+
+           3407    7189    7188    6947
CTETRA      1433       1     109    5527      86      20    3408    3285+
+           3409    3187    3410    2719
CTETRA      1434       1     109    8075    7858      85    3411    5151+
+           3412    3396    3413     604
CTETRA      1435       1     182    6204    6024    3931    2993    6882+
+           3414    3415    3416    3417
CTETRA      1436       1     182    3991    4081    3931    3418    4410+
+           1236    3415    3419    3420
CTETRA      1437       1     180     182    4081    3931    3002    1236+
+           3421    3422    3415    3420
CTETRA      1438       1      83      87    7859    7768     597     607+
+            606    3317    1854    4986
CTETRA      1439       1      83      85    7858    7859     592     604+
+            589     606     605    7887
CTETRA      1440       1      16      12    5558      20     307    2478+
+           3423     320     319    3316
CTETRA      1441       1      86      20    5527    5542    2719    3410+
+           3285    3424    3425    5671
CTETRA      1442       1     186    7099    4167    4170    1795    3426+
+           1809    1808    3427    4836
CTETRA      1443       1    6082    6134    6081      25    6581    6580+
+           6515    3428    3429    3430
CTETRA      1444       1     187    6142     253     188    3431    3432+
+           3433    1284    3434    2680
CTETRA      1445       1     229    4033    7770    4032    2108    4274+
+           2635    2630    4276    4275
CTETRA      1446       1     171    4110     178    4111    2814    2816+
+           2207    1170    4553    2653
CTETRA      1447       1      13     239     227      20    3042    3043+
+           3038     318    3340    2325
CTETRA      1448       1     226    8013    7922    8012    1850    5110+
+           2310    2599    8055    5113
CTETRA      1449       1     175    5568      91    5583    1194    2295+
+           1187    3349    5788    2293
CTETRA      1450       1      54      66    5181    5186     530     820+
+           3435     906     905    5193
CTETRA      1451       1      84      86     227      20     594    2718+
+           3343    3342    2719    2325
CTETRA      1452       1    5587    5294     194    5293    3436    1406+
+           1411    1412    5312    1408
CTETRA      1453       1    7857     109    8075    7858    3437    3411+
+           5154    7888    3412    5151
CTETRA      1454       1     229     227     239      84    2484    3043+
+           2631    2632    3343    2633
CTETRA      1455       1      87    7861    7860    7767    3438    7885+
+           3439    1855    4985    4984
CTETRA      1456       1      86     228      20    5557    2717    2319+
+           2719    3440    2316    2320
CTETRA      1457       1      65      68      67    7768     535     537+
+            534     538    1853     539
CTETRA      1458       1      87    7768    7860    7859    1854    4987+
+           3439     607    4986    7886
CTETRA      1459       1     167     136      99    7912    2915    2929+
+           2926    3230    2973    2972
CTETRA      1460       1     100     147     145    4063    1927     951+
+            925     927     984     928
CTETRA      1461       1     100    8022    6033    8023     644    6350+
+           1917     920    8045    6348
CTETRA      1462       1     145     140    6034    6033    1929    3242+
+           3441    1920    1919    6239
CTETRA      1463       1      99    8023     146    8024     921    3442+
+           3212    3227    8044    2859
CTETRA      1464       1     180     157     154    6201    1234    1036+
+           2362    2363    2360    2359
CTETRA      1465       1      16     110    5529      76     694    3326+
+           3325    3443    1767    3372
CTETRA      1466       1      13     182    8017    8016    3036    2992+
+           3037    3444    3445    8051
CTETRA      1467       1    7920      14      13      15    2476     295+
+           3040    2333     299     298
CTETRA      1468       1     154    8018      18    8017    1015    3182+
+           2994    2991    8050    2996
CTETRA      1469       1      12    7918      18       6     300    3047+
+            310     666     511    3328
CTETRA      1470       1    5914    7665    6080    8140    5939    2864+
+           2770    5942    5941    6640
CTETRA      1471       1     168    8030    6116    6115    2230    6524+
+           2222    2843    6517    6523
CTETRA      1472       1     168       8       7    7758    1133     277+
+           1132    3446    3202    3201
CTETRA      1473       1     168     249    7757    7756    3293    3247+
+           3447    2227    3324    7808
CTETRA      1474       1      11       9     193     249    2214    2213+
+           2215    3254    3253    3292
CTETRA      1475       1      96    7781    7847    7846    3448    5013+
+            687     674    5012    7899
CTETRA      1476       1     224    4166    4169    4165    2762    4826+
+           2764    1801    4827    4824
CTETRA      1477       1     102    7779      96    7780     658     655+
+            659     854    7792    2858
CTETRA      1478       1     105     131    6087    5969     840    3449+
+           3450    3451    3452    3453
CTETRA      1479       1     105     131    8026    6087     840    3224+
+           3174    3450    3449    6494
CTETRA      1480       1      75    5412      76    5515    2826    1785+
+            567    2036    3454    3402
CTETRA      1481       1    7778     100    7779      93     918     930+
+           7793    3218     647     654
CTETRA      1482       1    6999    8162    7000    6086    7028    7053+
+           7013    3455    6506    3215
CTETRA      1483       1      93      96      98     102     656     640+
+            682     657     659    3456
CTETRA      1484       1     118      98     102      99     742    3456+
+           2537     744     743    3226
CTETRA      1485       1    7910     102    7911     118    2539    3229+
+           7937     753    2537    2921
CTETRA      1486       1     190    7006    7005    4178    1386    7014+
+           1390    1383    1387    3457
CTETRA      1487       1      20    5543    5542    5558    3458    5672+
+           3425    3316    5717    5716
CTETRA      1488       1     110    5410    5513    5514    1775    1777+
+           1776    1786    3380    5628
CTETRA      1489       1     110    7855    8077    8078    3185    5158+
+           1774    3459    5157    8106
CTETRA      1490       1    7770    7771     109     239    7787    3405+
+           3460    2634    2150    3339
CTETRA      1491       1     109    7857    7771    7770    3437    4993+
+           3405    3460    4990    7787
CTETRA      1492       1      76    7854    8079    7853    1766    5159+
+           1783     568    7892    5162
CTETRA      1493       1     239     182    7771      19    2147    2151+
+           2150    3391    3184    3404
CTETRA      1494       1    5559      12    5558      16    3044    2478+
+           5718    3046     307    3423
CTETRA      1495       1     103    5576    5577    5561    1122    5770+
+           2961    3461    5769    5771
CTETRA      1496       1     135    8021    6026    6031     869    6236+
+           1951    1950    6230    6235
CTETRA      1497       1     103     139     137     136    1110    2810+
+           3206    2928    2966     874
CTETRA      1498       1      96      97      98     102     637     641+
+            640     659    3172    3456
CTETRA      1499       1    5578    5563     119     118    5775    3232+
+            755     754     748     757
CTETRA      1500       1      97      98    5563    5548     641     749+
+            759    3462    3463    5732
CTETRA      1501       1     102     252    7910    8024    2538    2536+
+           2539    2543    2540    5089
CTETRA      1502       1    7905       4       1      11    3306     266+
+            290    2517     287     285
CTETRA      1503       1     168       9    8030    8031    1131    2231+
+           2230    1156    2513    8037
CTETRA      1504       1    7087    4126    4125    7510    1658    4627+
+           1660    7315    4626    4623
CTETRA      1505       1     168    7007    7006    3992    2851    7018+
+           2228    3464    3465    3466
CTETRA      1506       1      40    4072    4068    4050     942    4374+
+            415     413    4377    4361
CTETRA      1507       1     130      41    5236    6052     830     451+
+           2052     834     833    2051
CTETRA      1508       1      41    7071    7070    6051     836    7163+
+           3467     828     837    3468
CTETRA      1509       1     130    6029    6049    6052    2446    6296+
+            831     834    6304    6307
CTETRA      1510       1      23    7543    4011    4176    3469    4870+
+           3470    3471    4876    4873
CTETRA      1511       1     128    7071    6051    6049     835     837+
+            825     817    3472    6308
CTETRA      1512       1     238    6102     127    5973    2190    3114+
+           2184    3473    3474    3475
CTETRA      1513       1      28    4193      27    4192    1366    2351+
+            362    1363    4948    2940
CTETRA      1514       1      48      51     142     141     470    3010+
+            898     911    1538    3015
CTETRA      1515       1     111    6090    6095    6089     706    6411+
+           2346    1324    6410    6409
CTETRA      1516       1     131    8026    6114    6090    3224    6498+
+           2691    2690    6497    6495
CTETRA      1517       1      23    6084    7055    7382    2519    3476+
+           3477    3478    6505    7114
CTETRA      1518       1     105    5970    5965    5964     848    5977+
+            855    2693    5976    5978
CTETRA      1519       1      59     241    3939      60    2703    2708+
+            501     522    2705    2709
CTETRA      1520       1    6124      63    6122      47    3479    2089+
+           6537    2076    3480    1721
CTETRA      1521       1      62    6125    6123    6079     516    6539+
+           1871    1874    6542    6526
CTETRA      1522       1      46    7760    3989    4145    3064    4264+
+           3481    2079    4754    4755
CTETRA      1523       1     156    5243    5244    5238    3027    5258+
+           3193    3021    5256    5259
CTETRA      1524       1     156    6212    6203    6202    2806    6908+
+           1032    2805    6907    6886
CTETRA      1525       1    4001     237    7063     238    2139    2153+
+           3482    2140    2129    3483
CTETRA      1526       1     138    7775    3993    4082    1010    4299+
+           2809    1012    4419    4421
CTETRA      1527       1     153     157    8018     154    1034    2357+
+           1016    1014    1036    1015
CTETRA      1528       1      22    7004    4191    7005     342     344+
+            336     348    7010    3484
CTETRA      1529       1    4058    5966     132     150    3485    1968+
+           3486    3487     981     998
CTETRA      1530       1     105     252    8026     134    2541    3175+
+           3174     860    2550    3225
CTETRA      1531       1      70    4115    4031    5188    1164    4586+
+            542    1163    1161    3488
CTETRA      1532       1     193    6025    8029    6088    2365    6502+
+           2216    3489    6423    6501
CTETRA      1533       1      38    5532    5533    5517    3213    5641+
+           3490     701    5639    5642
CTETRA      1534       1     168    7756    3992    7006    2227    4893+
+           3464    2228    2226    3466
CTETRA      1535       1    6081    7382      23    7054    6513    3478+
+           3491    3492    7113    3493
CTETRA      1536       1    7846      26    8087      38    3494    3495+
+           5175     675     407    3496
CTETRA      1537       1    5511    5403    5510    7640    3497    3498+
+           5616    5900    5439    5901
CTETRA      1538       1     190    4178    7005    4190    1383    3457+
+           1390    1389    4926     349
CTETRA      1539       1     166    5296    5299    7967    1124    5357+
+           3330    3499    5334    5358
CTETRA      1540       1    5546     103    5562    5561    3500    2919+
+           5728    5726    3461    5727
CTETRA      1541       1     112     193     249      11    1395    3292+
+           3252    2953    2215    3254
CTETRA      1542       1      25    6086    6999    7000    3501    3455+
+           3502    2978    3215    7013
CTETRA      1543       1     247     248     250     133    2422    3050+
+           2433    3503    2515    3104
CTETRA      1544       1     250    5534     248    5535    3051    3053+
+           3050    3250    5649    3251
CTETRA      1545       1      90    7980    7903    7902    3504    5020+
+            615    1599    5017    7929
CTETRA      1546       1     175      91     176    7927    1187    2296+
+           1192    3260    2304    2303
CTETRA      1547       1      61      60    6188      64     507    2496+
+           1816     524     523    1095
CTETRA      1548       1     171    4112     229    3940    2109    2110+
+           2106    2102    3505    2104
CTETRA      1549       1      16      76      17     108    3443    3163+
+            308     689    1770     690
CTETRA      1550       1      18    7917    8017    8018    3276    5103+
+           2996    3182    5100    8050
CTETRA      1551       1      14    5292    5588    5293    3506    3507+
+            700    2477    5328    3508
CTETRA      1552       1       6    7917    7916    7966    3274    7943+
+           3139    3138    5048    5045
CTETRA      1553       1      57    6189      60    3934     509     508+
+            505    3295    3296    2706
CTETRA      1554       1    8073      89    7860    7859    1663    3284+
+           5147    5150    1662    7886
CTETRA      1555       1      65    7768      83      68     538    3317+
+           1835     535    1853     586
CTETRA      1556       1     239    7684     182    8016    2149    2148+
+           2147    2638    2640    3445
CTETRA      1557       1     184    5909    4168    4166    2760    3509+
+           3510    2761    2763    4830
CTETRA      1558       1    4178     193    7006    7756    1384    1388+
+           1387    4888    2225    2226
CTETRA      1559       1     170    6115    7002    6120    2844    3511+
+           3512    2846    6633    3513
CTETRA      1560       1     182    6024    8017    8016    3414    6883+
+           2992    3445    6358    8051
CTETRA      1561       1      29      31    4148    4157     368    2672+
+            390     389    1463    4787
CTETRA      1562       1     170    7008    7007    4149    2842    7022+
+           2853    2839    2673    3514
CTETRA      1563       1     170      33    7003    7008    2841    2667+
+           2847    2842    2668    7024
CTETRA      1564       1      29    6126      34      32     374     461+
+            382     371     375    1726
CTETRA      1565       1      38    5517    5533    5518     701    5642+
+           3490     408    5644    5643
CTETRA      1566       1     190    7000    7001    6100    2856    7017+
+           2857    1381    2983    3515
CTETRA      1567       1     169    8193    8192    8033    2896    7709+
+           2305    1135    8034    5071
CTETRA      1568       1      29    4148     253      33     390    2671+
+           3516     377     391    3517
CTETRA      1569       1     168    7001    7007    7002    2221    7019+
+           2851    3518    7021    7020
CTETRA      1570       1      32      33    4149    4147    1894    2840+
+           3519    1730     393    4733
CTETRA      1571       1     187     253      31    4158    3433    2669+
+           1273    1277    2670    1278
CTETRA      1572       1      32     170    4149      33    1152    2839+
+           3519    1894    2841    2840
CTETRA      1573       1      92       1       7       9    3290     275+
+           1141    1604     279     278
CTETRA      1574       1      10    7699    5550    5565    2508    5875+
+           2746    2507    5872    5738
CTETRA      1575       1      33    6120    7003    8166    2845    2848+
+           2667    3239    6594    7046
CTETRA      1576       1    7826    4052    5240    5241    4396    3520+
+           5269    5270     440    5246
CTETRA      1577       1     138    6026    6203     156    3373    6888+
+           1028    1031    3008    1032
CTETRA      1578       1      79      95    7850    8082    2017    2016+
+           2015    3179    3178    5168
CTETRA      1579       1    7824    4076    5243    4087    4456    2273+
+           5274    4452    4455    3521
CTETRA      1580       1     195     144    7923    7924    2002    2934+
+           2933    2012    2014    7950
CTETRA      1581       1     245     156    5243    5244    3024    3027+
+           2269    3522    3193    5258
CTETRA      1582       1    7866     115    7865    8067    3360     725+
+           7880    5135    3523    5138
CTETRA      1583       1     113     117     115     120     737     762+
+            718    3094    3131     765
CTETRA      1584       1       5    7978    7979    5304    3524    7983+
+            629    3525    5388    5387
CTETRA      1585       1    7422    7423    6165    7095    7467    6721+
+           6720    7234    7236    3034
CTETRA      1586       1    5507     114     115    5401     720     717+
+            721    3526    3527    1687
CTETRA      1587       1    3931    4080    3936    4081    3528    1861+
+           3941    3420    4413    1862
CTETRA      1588       1     182    3991    7771    7772    3418    4278+
+           2151    1238    4409    7796
CTETRA      1589       1     219    7870    8063    7869    2428    5127+
+           2877    1675    7876    5130
CTETRA      1590       1      57    4105    3939    4040     491    3529+
+            500     499    4541     502
CTETRA      1591       1    7102    7429    6129    6133    7255    6564+
+           1701    1391    6567    6565
CTETRA      1592       1     204    3938    3932    3937    3530    3947+
+           3531    3532    3946    3944
CTETRA      1593       1     181    6208    6218    6221    1231    6935+
+           2569    1439    6949    6954
CTETRA      1594       1     204    3937    4046    3938    3532    3072+
+           2570    3530    3946    3073
CTETRA      1595       1      91    8192    7955    8194     612    5069+
+           1188     609    7710    8007
CTETRA      1596       1     204    4102    3938    4046    2158    3533+
+           3530    2570    4514    3073
CTETRA      1597       1       4    5580    7700    5565    1491    5870+
+            265    2505    5781    5873
CTETRA      1598       1     180    3932    3931    3937    3534    3945+
+           3422    3535    3944    3943
CTETRA      1599       1     189    4171    7096    4173    3035    3536+
+           3030    3029    4848    1303
CTETRA      1600       1     203    6219     240    7079    3537    3538+
+           3539    1520    3406    3540
CTETRA      1601       1     224    5909    4166    7664    2759    2763+
+           2762    2865    5936    2866
CTETRA      1602       1    8140    7665    6080    8178    5941    2864+
+           6640    8145    7668    6547
CTETRA      1603       1    5397     247     250    8191    3541    2433+
+           3542    5460    2432    2434
CTETRA      1604       1     168    3992    7756    7757    3464    4893+
+           2227    3447    4753    7808
CTETRA      1605       1    8178    7665    6080    6125    7668    2864+
+           6547    6546     519    6544
CTETRA      1606       1     222    6159    6072    5915    2290    6687+
+           2800    2927    3543    3544
CTETRA      1607       1      81    5915      56    6158    2289     490+
+           2288    3545    3546    3547
CTETRA      1608       1    7723    3937    4046    4080    3966    3072+
+           4406    4404    3548    4405
CTETRA      1609       1      57    4040    4104    4105     499    4545+
+            504     491    4541    4546
CTETRA      1610       1     251    4030    4029    4027    2946    4579+
+           2623    3549    4639    4644
CTETRA      1611       1     185     184    4172     183    1307    3550+
+           1260    1255    1248    1259
CTETRA      1612       1      13    8016    7918    7919    3444    5105+
+            302    2474    5104    7945
CTETRA      1613       1     247    7871    8061    8062    3256    5126+
+           3551    2417    5125    8090
CTETRA      1614       1     204    3933     241    6217    3552    3553+
+           2572    2573    3070    2574
CTETRA      1615       1    5242    4099    4076    7825    1867    4494+
+           3554    5272    4493    4492
CTETRA      1616       1    3937    4080    3936    3931    3548    1861+
+           3942    3943    3528    3941
CTETRA      1617       1     181    4046    4080    4085    2571    4405+
+           1243    1450    4416    4424
CTETRA      1618       1      47      62    6122     221    2069    2090+
+           1721    1724    2830    1725
CTETRA      1619       1      62    6123    6125    6122    1871    6539+
+            516    2090    6541    6540
CTETRA      1620       1     181    4080    4046    3937    1243    4405+
+           2571    3555    3548    3072
CTETRA      1621       1     241    3934    6207    3933    2707    2715+
+           2714    3553    3953    3556
CTETRA      1622       1      61    4105    4104    4110    3297    4546+
+            514    2815    4554    4555
CTETRA      1623       1    6086    6099    7000      25    6420    2977+
+           3215    3501     361    2978
CTETRA      1624       1      60    6206    6207    6064    2716    6894+
+           2713    3557    6892    6891
CTETRA      1625       1     193    6116    6025    7001    2223    6520+
+           2365    2220    2224    2981
CTETRA      1626       1     168    7002     170    6115    3518    3512+
+           1157    2843    3511    2844
CTETRA      1627       1      22    7005    4191    4190     348    3484+
+            336     345     349    4937
CTETRA      1628       1     254    4012    4013    4177    2784    4887+
+           2908    2678    4886    4884
CTETRA      1629       1     188    6134    7661    6141    2795    2383+
+           2793    2792    6608    2471
CTETRA      1630       1    3937    3936    4080    7723    3942    1861+
+           3548    3966    3965    4404
CTETRA      1631       1      72    4141    4136    7680     561    4711+
+           2062    2058    3558    2061
CTETRA      1632       1     166       6    5590    5574    3136    3333+
+           3332    3378    3369    5808
CTETRA      1633       1      71    4140    4141    4027    1994    4710+
+            547     550    4703    4709
CTETRA      1634       1     136     103      93     101    2928     660+
+           3559     871     661     649
CTETRA      1635       1     224    6157    6080    6079    2767    6694+
+           2769    1877    6689    6543
CTETRA      1636       1      71    4139    4140    4026    1993    4704+
+           1994    3560    4700    4702
CTETRA      1637       1     166    7968    7967    7915    3207    7994+
+           3499    3379    5044    5043
CTETRA      1638       1     208    6152    6155    6160    1637    6674+
+           1980    2125    6698    6699
CTETRA      1639       1     183    4174    7098    4170    1253    1221+
+           1304    1807    4853    3561
CTETRA      1640       1    5292       6    5299    7965     274     272+
+           5352    5350     513    5354
CTETRA      1641       1    5585    5290    7958    5295    3562    5306+
+           1996    3563    5322    5324
CTETRA      1642       1    5299    5590    7604    5296    3331    5857+
+           5356    5357    3564    5351
CTETRA      1643       1     211     232    4134     230    3565    1905+
+           3566    1885    1902    1906
CTETRA      1644       1     130    4048    4099    4049    3567    4496+
+           1864    1863    4398    4495
CTETRA      1645       1     240     241     242    6206    2163    2171+
+           2167    2711    2710    3568
CTETRA      1646       1      44    4075     130    5241    2986    2987+
+           2985     443    2988    3569
CTETRA      1647       1     107    4093      52    4089     684     978+
+           1037     685    4464    1225
CTETRA      1648       1      74      76      17      78     566    3163+
+           3181     573    2829    3329
CTETRA      1649       1      53    5237    6061    6227    2276    3570+
+           2279    2274    2277    6987
CTETRA      1650       1      64    4041    7082    4038    2490    2500+
+           2497    2501    4531    2502
CTETRA      1651       1    4082    5244     138     156    3381    3382+
+           1012    2354    3193    1031
CTETRA      1652       1      94    8086    7847    8085     697    5173+
+            688    3571    8114    5174
CTETRA      1653       1     126     127    7670    7669     805    1740+
+           1739    3572    3573    7672
CTETRA      1654       1     151    6040    6041    5971    1003    6255+
+           2738     983    1004    3574
CTETRA      1655       1     151    5972    5966    5971    1957    5984+
+            980     983    5983    5981
CTETRA      1656       1     107    4083     245    4088    3575    3025+
+           3028     686    4444    2285
CTETRA      1657       1     245    4092    4082    5244    3576    4450+
+           3026    3522    3577    3381
CTETRA      1658       1    8185    3931    6024    7715    3959    3417+
+           6352    7716    3960    6351
CTETRA      1659       1      15     227    7920    7921    2324    3041+
+           2333    2312    2931    7947
CTETRA      1660       1    7080    4100    7517    4101    3578    4503+
+           7329    3579    4516    4507
CTETRA      1661       1     153     157    4086    4083    1034    3580+
+           3581    2352    3582    4430
CTETRA      1662       1    4037     225      66    4036    1827    1826+
+           1824    4284    2854    3583
CTETRA      1663       1      15    5587    5588    5572    1413    5801+
+            306    2323    5800    5802
CTETRA      1664       1     169    8193    8008    7927    2896    8060+
+           2897    2302    5122    5120
CTETRA      1665       1    5243    7824    5242    4076    5274    5273+
+           5254    2273    4456    3554
CTETRA      1666       1      25    6085    6086    6099     359    6419+
+           3501     361    6418    6420
CTETRA      1667       1    7837    7004    4191    7838    7033     344+
+           4940    7844    7032    4939
CTETRA      1668       1    5581    7979    5300    5304     622    5383+
+            623    3584    5387    5386
CTETRA      1669       1    7868    7867     218     121    7878    1688+
+           1669    1666     770    1668
CTETRA      1670       1       5    7903    7979    7904     618    5019+
+            629    1601    7930    5022
CTETRA      1671       1     115    8066    5401    8067    1686    5430+
+           1687    3523    8095    5429
CTETRA      1672       1    3993    5244    7776     138    2092    3585+
+           4298    2809    3382     889
CTETRA      1673       1     150    5971     132    6040     982    1967+
+            998    1002    1004    1005
CTETRA      1674       1     117    5552    5553    5537    3125    5700+
+           3083    3127    5699    5701
CTETRA      1675       1     201    7907    7975    7908    1486    5027+
+           3586    2955    7934    5030
CTETRA      1676       1     201    5595    5580    5579    1492    5824+
+           1478    1476    5823    5779
CTETRA      1677       1    7057    6105    6108    7384    3200    6463+
+           1075    7120    6454    6465
CTETRA      1678       1      46    5912    5917    5918    3587    5930+
+           3588    3589    5933    5932
CTETRA      1679       1    5969    6087    8151    6114    3453    6386+
+           5997    3590    6500    6499
CTETRA      1680       1     136    8021    8022    7913     870    8046+
+            867    2917    5095    5092
CTETRA      1681       1     190    6100      27    7000    1381    1380+
+           1379    2856    2983    2979
CTETRA      1682       1      55    4127    7765    7766    2466    4685+
+            896     482    4714    7803
CTETRA      1683       1      21    5553    5552    5568    3087    5700+
+           3122    2298    5745    5744
CTETRA      1684       1      28    4184    4182    4192     355    4918+
+           1368    1363    4941    4942
CTETRA      1685       1    7698    5551       1       2    5833     263+
+            256     257    3121     258
CTETRA      1686       1     175     206    7926    7927    3347    3389+
+           3591    3260    3390    7953
CTETRA      1687       1    6039     100     146     150    1921     931+
+           3240    1429    1928     999
CTETRA      1688       1     176    5568    5569    5553    1193    5746+
+           1196    3084    5745    5747
CTETRA      1689       1    7057    7058    7385    6108    7124    7123+
+           7122    1075    1573    6466
CTETRA      1690       1     189    7095    4171    4017    3031    3592+
+           3035    2722     758    4840
CTETRA      1691       1    7098    7099    4170    7499    7247    3427+
+           3561    7293    7292    4835
CTETRA      1692       1      76    5545      17      78    3161    3164+
+           3163    2829    3168    3329
CTETRA      1693       1      76    5514    5529    5530    1787    5627+
+           3372    3401    5630    5629
CTETRA      1694       1      69    4027    4028    4030     549    4640+
+           2943     544    4639    4638
CTETRA      1695       1    7097    7500    4174    7501    7295    4852+
+           1257    7296    7591    4856
CTETRA      1696       1       9    8029    8030    7905    2217    8038+
+           2231     291    5079    5076
CTETRA      1697       1    7068    7530    7529    4071    7354    7555+
+           7353    3593    4363    4366
CTETRA      1698       1    7098    7425    6167    6163    7243    6726+
+           2860    1793    6712    6728
CTETRA      1699       1    7093    7092    7505    4139    7229    7305+
+           7304    2697    1976    4699
CTETRA      1700       1      81     184    6164    6158    1306    1252+
+           1308    3545    3594    6715
CTETRA      1701       1    5400    5506    5402    7644    3595    3596+
+           5436    5416    5827    5435
CTETRA      1702       1    4042      59    4039     242    2744    2240+
+           4528    2172    2239    2241
CTETRA      1703       1    5293    5294     194    7962    5312    1406+
+           1408    5308    5314    1417
CTETRA      1704       1     229    3935    7685    7684    1962    3976+
+           3597    1959    3975    7687
CTETRA      1705       1    7082    7083    7410    6062    7199    7198+
+           7197    3598    1089    6796
CTETRA      1706       1    7081    7408    7080    6215    7192    7191+
+           7193    2169    6929    3599
CTETRA      1707       1     203    7078    7079    4044    1514    7187+
+           1520    2837    3600    3601
CTETRA      1708       1    7079    7078    7519    4044    7187    7333+
+           7332    3601    3600    4478
CTETRA      1709       1     114    7642    5508    5509    3602    5905+
+            728    3603    5904    5608
CTETRA      1710       1      59      64     242      60     525    2242+
+           2239     522     523    2704
CTETRA      1711       1    7065    7064    7533    3986    7145    7361+
+           7360    2732    2145    4203
CTETRA      1712       1     217     225    6177    6183    2754    3604+
+           1926    2753    2660    6780
CTETRA      1713       1    7097    7501    4173    7096    7296    4857+
+           1300    7241    7297    1303
CTETRA      1714       1     185    7097    7096    6167    1258    7241+
+           1302    1267    1269    3605
CTETRA      1715       1    7096    7097    7424    6167    7241    7240+
+           7239    3605    1269    6727
CTETRA      1716       1     124    4006    4005    4009    1293    4232+
+           1298    3346    4255    4254
CTETRA      1717       1    7107    4175    4014    7490    2315    4868+
+           1288    7275    4865    4867
CTETRA      1718       1     100    4063    7778    7779     927    4335+
+            918     930    4334    7793
CTETRA      1719       1     188    6142    6141    6145    3434    6616+
+           2792    1290    6628    6627
CTETRA      1720       1      23    7055    4186    7542    3477    3606+
+           3607    3608    7379    4912
CTETRA      1721       1     150     151    4057    5966     979    1420+
+           1418     981     980    3609
CTETRA      1722       1     187     253    4015     188    3433    2682+
+           3233    1284    2680    2683
CTETRA      1723       1     243    4003    7062    4001    3116    3115+
+           2182    3610    4218    3611
CTETRA      1724       1    7106    7105    7492    4163    7268    7279+
+           7278    1280    1275    4811
CTETRA      1725       1      36    7528    4050    4070     418    4358+
+            412     404    4357    4356
CTETRA      1726       1      41    7070    7069    6056    3467    7160+
+           3612     425    3613    3614
CTETRA      1727       1    7068    7529    7069      36    7353    7352+
+           7157     401     419     416
CTETRA      1728       1    4124    5188    4115     148    1845    1161+
+           4629    1167    1069    1162
CTETRA      1729       1    7069    7070    7397    6056    7160    7159+
+           7158    3614    3613    6321
CTETRA      1730       1    7737    7680    4127    8184    5212    2470+
+           4715    7743    7683    4682
CTETRA      1731       1    3931    3991    4081    3936    3419    4410+
+           3420    3941    3615    1862
CTETRA      1732       1     225    6183    6174    6175    2660    6770+
+           1846    1848    6772    6771
CTETRA      1733       1     208    7093    7094    4021    1638    7232+
+           3616    1634    1641    2893
CTETRA      1734       1     208    7094    4017    4021    3616    3617+
+           2721    1634    2893    4722
CTETRA      1735       1      35    7075    6059    6222     967    3618+
+            385    1442    1445    6959
CTETRA      1736       1     235    7092    7506    7091    1972    7306+
+           2696    2625    7226    7307
CTETRA      1737       1    7823    5244    3993    4092    5276    2092+
+           4294    4447    3577    4449
CTETRA      1738       1    6169    7419     235    7091    6744    2702+
+           3619    3620    7224    2625
CTETRA      1739       1    7083    7084    7411    6187    7202    7201+
+           7200    3298    1083    6798
CTETRA      1740       1    4065    4052    5240    4066    4370    3520+
+           3621    4345    4368    3622
CTETRA      1741       1    7079    7406    7078    6224    7186    7185+
+           7187    1522    6966    1523
CTETRA      1742       1    7078    4096    7077    7520    1515    2838+
+           7184    7334    4477    7335
CTETRA      1743       1     237    7064    6092    6019    2143    3623+
+           3624    2133    2146    6394
CTETRA      1744       1     238     237    7063    6101    2129    2153+
+           3483    2128    2127    3625
CTETRA      1745       1    7064    7063    7534    4000    7142    7363+
+           7362    2156    2155    4214
CTETRA      1746       1    7096    6166    6167    7423    3626    6730+
+           3605    7237    6732    6731
CTETRA      1747       1     161    4182    4183    3997    1055    4902+
+           1453    1076    4898    4901
CTETRA      1748       1    7816    5964    4179    4010    5993    2689+
+           4904    4257    2688    4905
CTETRA      1749       1       7      92       9    8031    1141    1604+
+            278    1155    3291    2513
CTETRA      1750       1    4057     234    3988    7813    1970    3627+
+           4302    4300    3628    4198
CTETRA      1751       1    7097    7098    7425    6167    7244    7243+
+           7242    1269    2860    6726
CTETRA      1752       1    6143    7105     187      31    1351    1274+
+           3629    1348    1276    1273
CTETRA      1753       1     237     198    6020     197    2135    2134+
+           2132    2176    2367    2374
CTETRA      1754       1     191    7105    7104    6143    1350    7265+
+           1355    1347    1351    1353
CTETRA      1755       1    7724    4046    3938    4102    4518    3073+
+           3968    4519    4514    3533
CTETRA      1756       1    6189      60    6188      61     508    2496+
+           6811     510     507    1816
CTETRA      1757       1     240     242    4042    4101    2167    2172+
+           2161    2174    2173    4510
CTETRA      1758       1     246    4130    5911    5912    2884    3630+
+           2393    2881    2885    5931
CTETRA      1759       1    7104    7493    7105     191    7281    7280+
+           7265    1355    1790    1350
CTETRA      1760       1      44    7826    4052    4075    2989    4396+
+            444    2986    4400    4392
CTETRA      1761       1    7056    7541    7057    4183    7377    7376+
+           7121    1457    4896    3631
CTETRA      1762       1    7056    7057    7384    6105    7121    7120+
+           7119    3199    3200    6454
CTETRA      1763       1    7070    7071    7398    6051    7163    7162+
+           7161    3468     837    6310
CTETRA      1764       1      66    5181    6171    6172     820    2728+
+           2727    3632    3633    6761
CTETRA      1765       1    7091    7090    6066    7418    7223    2701+
+           2629    7222    7221    6742
CTETRA      1766       1    7084    7085    4117    7513    7205    1217+
+           1815    7321    7320    4593
CTETRA      1767       1    4031    5188    4115    4124    3488    1161+
+           4586    4628    1845    4629
CTETRA      1768       1    7084    6180    7085    7412    3634    1213+
+           7205    7203    6817    7204
CTETRA      1769       1     200    7078    7077    6225    1516    7184+
+           1944    1517    1519    3635
CTETRA      1770       1     200    7077    6226    6225    1944    1943+
+           1940    1517    3635    6978
CTETRA      1771       1    7087    7088    7415    6198    7214    7213+
+           7212    1643    1645    6849
CTETRA      1772       1    5180    6027    8122    6172    3309    6655+
+           5209    3636    6758    6757
CTETRA      1773       1      52    6223     199    6210    3637    1945+
+           1936    1937    6962    1938
CTETRA      1774       1     199    4098    7076    7521    3366    3638+
+           1949    3364    4486    7337
CTETRA      1775       1     160    6096    6106    6107    1373    6459+
+           3639    1370    6458    6460
CTETRA      1776       1    7057    4183    7540    3997    3631    4895+
+           7375    1077    4901    4223
CTETRA      1777       1    7057    6108    7385    7384    1075    6466+
+           7122    7120    6465    7447
CTETRA      1778       1    7104    7103    6138    7431    7262    1358+
+           1352    7261    7260    6598
CTETRA      1779       1    7104    7103    7494    4161    7262    7283+
+           7282    3640    1345    4802
CTETRA      1780       1     183     184    4172    4169    1248    3550+
+           1259    1261    1264    4842
CTETRA      1781       1    7097    6167    7425    7424    1269    6726+
+           7242    7240    6727    7468
CTETRA      1782       1    7098    6163    7099    7426    1793    1796+
+           7247    7245    6711    7246
CTETRA      1783       1     250    8087    8088    7845    3641    8116+
+           3642    3394    5178    5177
CTETRA      1784       1    5911    4025    5910    7745    3643    1745+
+           5927    5961    4717    5962
CTETRA      1785       1      90    7980    7902    8194    3504    5017+
+           1599     610    7981    5018
CTETRA      1786       1    7063    7062    7535    4001    7139    7365+
+           7364    3482    3611    4213
CTETRA      1787       1     222    5910    5911    4025    1746    5927+
+           3644    1748    1745    3643
CTETRA      1788       1    8063     219     247    7870    2877    2429+
+           2416    5127    2428    2427
CTETRA      1789       1    7837    7005    7836    4178    7034    7035+
+           7842    4892    3457    4890
CTETRA      1790       1    7539    7538    7059    4004    7549    7371+
+           7372    4224    4225    1063
CTETRA      1791       1     153    4086    7773    7774    3581    4427+
+           1024    1027    4429    7798
CTETRA      1792       1    4073    7071    7526    7527    3645    7347+
+           4380    4379    7348    7556
CTETRA      1793       1     128    7526    4074    4073    3646    4385+
+            808    2045    4380    4394
CTETRA      1794       1     128    7072    7071    6049    1755    7166+
+            835     817    3647    3472
CTETRA      1795       1    7071    7072    7399    6049    7166    7165+
+           7164    3472    3647    6293
CTETRA      1796       1     222    5915    5910      81    2927    5922+
+           1746    1747    2289    1744
CTETRA      1797       1    7527    4073    7070    4050    4379    3648+
+           7349    4381    4382    3649
CTETRA      1798       1    7745      80    4025    5910    1624     576+
+           4717    5962    1626    1745
CTETRA      1799       1    5244    4053    7690    8188    2091    2356+
+           5278    5277    4293    7693
CTETRA      1800       1      69     251      71    4027    2945    2614+
+            546     549    3549     550
CTETRA      1801       1      69      71      72    4141     546    2057+
+            555     548     547     561
CTETRA      1802       1     251    7090    7089    6190    2616    7220+
+           2619    3650    3651    3652
CTETRA      1803       1    7090    4114    7089    7508    2617    2620+
+           7220    7310    4577    7311
CTETRA      1804       1     184    4172    4168      80    3550    4844+
+           3510    3653    3654    3655
CTETRA      1805       1    7083    7514    4103    4038    7323    4536+
+           3656    2503    4532    4540
CTETRA      1806       1    7085    7512    7086    4121    7319    7318+
+           7208    1821    4606    1822
CTETRA      1807       1     245    4082    4088    4083    3026    4446+
+           2285    3025    4423    4444
CTETRA      1808       1     123    3989    7760    7761    3657    4264+
+            786     781    4263    7784
CTETRA      1809       1    6022    5970    8152    8153     850    5999+
+           6389    6247    6000    8158
CTETRA      1810       1    5239    6214    8130    8129    3005    6925+
+           5283    5282    6924    8136
CTETRA      1811       1    7085    7086    7413    6193    7208    7207+
+           7206    3658    1654    6833
CTETRA      1812       1     196    4061    4055    4054    1586    4329+
+           2373    2735    4330    4310
CTETRA      1813       1     122       7    8032      92     772    3383+
+           1159    1137    1141    1160
CTETRA      1814       1    7076    7075    6222    7403    7178    1445+
+           1947    7177    7176    6958
CTETRA      1815       1     246    5916    5917    5911    2399    5928+
+           2592    2393    5926    5929
CTETRA      1816       1    7076    4098    7075    7522    3638    3659+
+           7178    7338    4485    7339
CTETRA      1817       1      56      80      81     184    2286     577+
+           2288    3660    3653    1306
CTETRA      1818       1      53    5243     245    5238    2270    2269+
+           2268    3194    5256    3022
CTETRA      1819       1    7098    7426    7425    6163    7245    7466+
+           7243    1793    6711    6712
CTETRA      1820       1    7099    7100    7427    6156    7250    7249+
+           7248    3661    1806    6685
CTETRA      1821       1     243    7062    7061    6111    2182    7136+
+           3117    3662    3663    3664
CTETRA      1822       1     237    7063    6101    6092    2153    3625+
+           2127    3624    3665    6432
CTETRA      1823       1    7062    4003    7061    7536    3115    3118+
+           7136    7366    4221    7367
CTETRA      1824       1    7062    7061    6111    7389    7136    3664+
+           3663    7135    7134    6474
CTETRA      1825       1    7103    7430    6133    6138    7258    6596+
+           3666    1358    6597    6599
CTETRA      1826       1     126     223    3994    7669    1749    3368+
+           2582    3572    3667    3668
CTETRA      1827       1    7103    7102    7495    4159    7259    7285+
+           7284    3375    3063    4791
CTETRA      1828       1    7072    7073    4047    7525    7169    3159+
+           2048    7345    7344    4389
CTETRA      1829       1    7072    7073    7400    6030    7169    7168+
+           7167     810    3669    6299
CTETRA      1830       1     174    7089    7088    6191    1182    7217+
+           1185    3670    3671    3672
CTETRA      1831       1    7089    6190    7416    6191    3652    6819+
+           7216    3671    6828    6826
CTETRA      1832       1    7001    6100    7000    8163    3515    2983+
+           7017    7051    6428    7052
CTETRA      1833       1    8163    7001    6100    8164    7051    3515+
+           6428    8167    7050    6427
CTETRA      1834       1    5537       2    5521    5522    3126    2876+
+           5655    5656    2415    5597
CTETRA      1835       1    7089    7088    7509    4116    7217    7313+
+           7312    1183    1186    4588
CTETRA      1836       1    8154    5972    6021    6041    6003    3673+
+           6253    6251    3674    6252
CTETRA      1837       1    4020      81      80    4172     578     577+
+            575    4845    1314    3654
CTETRA      1838       1    8166    6120    7003    8165    6594    2848+
+           7046    8172    6632    7047
CTETRA      1839       1    4177    8182    4013    7675    4883    4885+
+           4884    3237    7678    2907
CTETRA      1840       1     187     188    6145    6142    1284    1290+
+           1289    3431    3434    6628
CTETRA      1841       1    7670    6103    8180    5973    1742    6449+
+           7673    6007    3675    6006
CTETRA      1842       1     213    4181    4180    4193    2560    4909+
+           2554    2558    4950    4951
CTETRA      1843       1      31    6143    6144     187    1348    6622+
+           3234    1273    3629    3355
CTETRA      1844       1     191    4162    4160    4161    1465    4806+
+           1335    1342    4807    4801
CTETRA      1845       1    7057    3997    7540    7058    1077    4223+
+           7375    7124    1064    7374
CTETRA      1846       1      80    7744    5909    5910    1625    5938+
+           3676    1626    5963    5923
CTETRA      1847       1    7085    4121    4117    7512    1821    4608+
+           1217    7319    4606    4594
CTETRA      1848       1    7086    7087    7414    6195    7211    7210+
+           7209    1814    3677    6838
CTETRA      1849       1     145    6043    6036    6034     936    6280+
+            954    3441    6270    6240
CTETRA      1850       1    7086    7087    4125    7511    7211    1660+
+           2817    7317    7316    4622
CTETRA      1851       1    7630    5397    7696    5520    5414    3678+
+           5880    5881    3679    5878
CTETRA      1852       1     137    7776    7852    7851     890    5003+
+           3151    3156    5002    7894
CTETRA      1853       1      35    7075    7074    6059     967    7175+
+            970     385    3618    1756
CTETRA      1854       1    7075    4094    7074    7523     968     971+
+           7175    7340    4467    7341
CTETRA      1855       1     152     151     197    4056     992    1427+
+           1426    2740    2739    2371
CTETRA      1856       1     124     125    6113    7059     793     806+
+            790    3680    1062    3681
CTETRA      1857       1    6031    6026    7689    8187    6235    1954+
+           1953    6234    6232    7691
CTETRA      1858       1    7060    6111     124    7061    3682    3683+
+            791    7133    3664    3238
CTETRA      1859       1    6112    7060    6111     124     789    3682+
+           6481     792     791    3683
CTETRA      1860       1    7824    4087    5243    4092    4452    3521+
+           5274    4448    4451    3684
CTETRA      1861       1    4009    7537     124    7061    4253    1296+
+           3346    3120    7368    3238
CTETRA      1862       1    7099    6156    7427    7426    3661    6685+
+           7248    7246    6686    7464
CTETRA      1863       1    8140    6158    5914    8141    6697    3685+
+           5942    8146    6692    5943
CTETRA      1864       1      46    5913      47    4154    3686    3687+
+            456    2077    3688    2078
CTETRA      1865       1    7100    7427    6156    6078    7249    6685+
+           1806    3689    6667    6683
CTETRA      1866       1    7100    7101    7428    6078    7253    7252+
+           7251    3689    1695    6560
CTETRA      1867       1    7059    6113    7060    7387    3681     788+
+           7130    7128    6488    7129
CTETRA      1868       1    7059    7060    4004    7538    7130    1297+
+           1063    7371    7370    4225
CTETRA      1869       1     159    6108    6110    7386    1072    6473+
+           1575    3690    6484    6485
CTETRA      1870       1     159    7058    7386    7059    1066    7125+
+           3690    1061    7127    7126
CTETRA      1871       1     124    7059    6113    7060    3680    3681+
+            790     791    7130     788
CTETRA      1872       1    7101    7102    7429    6129    7256    7255+
+           7254    1698    1701    6564
CTETRA      1873       1     186     224    4169    4165    1800    2764+
+           1262    1797    1801    4824
CTETRA      1874       1      33    6139    6130    6137     379    6603+
+            376    3691    6605    6587
CTETRA      1875       1    7103    7430    7102    6133    7258    7257+
+           7259    3666    6596    1391
CTETRA      1876       1    7101    7428    6078    6129    7252    6560+
+           1695    1698    6559    6558
CTETRA      1877       1    7102    7495    4159    4144    7285    4791+
+           3063    3692    4795    4793
CTETRA      1878       1     129    6227    6029    6028    2275    6983+
+           3693    3694    6982    6306
CTETRA      1879       1    8164    7001    6025    6116    7050    2981+
+           6429    6519    2224    6520
CTETRA      1880       1    7073    6228    7074    7401    1762    1764+
+           7172    7170    6990    7171
CTETRA      1881       1    7074    6228    6059    7401    1764    6991+
+           1756    7171    6990    6981
CTETRA      1882       1    7073    7524    4078    4047    7343    4491+
+           3158    3159    4390    4497
CTETRA      1883       1     107      53     245    6061    1048    2268+
+           3028    2280    2279    3023
CTETRA      1884       1     128    4074    7525    4047     808    4384+
+           2050    2042    4386    4389
CTETRA      1885       1    7087    7510    7088    4126    7315    7314+
+           7214    1658    4626    2855
CTETRA      1886       1    7087    6198    7414    6195    1643    6851+
+           7210    3677    6852    6838
CTETRA      1887       1     122     123     169    8033     780    2901+
+           1136    1134    2890    1135
CTETRA      1888       1     180    4080     181    3937    1244    1243+
+           1229    3535    3548    3555
CTETRA      1889       1     214    7086    7087    4125    1652    7211+
+           1642    1659    2817    1660
CTETRA      1890       1    8178    8144    5918      63    8150    5950+
+           5951    3695    3696    3697
CTETRA      1891       1     179    6193    7085    6180    1650    3658+
+           1214    1211    6830    1213
CTETRA      1892       1     214    6198    7087    6195    1611    1643+
+           1642    1813    6852    3677
CTETRA      1893       1    7089    7508    4116    7509    7311    4587+
+           1183    7312    7573    4588
CTETRA      1894       1    7065    7064    6019    7392    7145    2146+
+           3698    7144    7143    6277
CTETRA      1895       1    7065    7392    6019    6047    7144    6277+
+           3698    2407    6276    6278
CTETRA      1896       1     196    6038    6047    6019    1422    6279+
+           2408    2376    6263    6278
CTETRA      1897       1    4003     243    4002    4001    3116    2587+
+           4219    4218    3610    4216
CTETRA      1898       1     254    7675    7004    7674    2906    7029+
+           2909    2798    7677    7030
CTETRA      1899       1    7675    8182    4013    7838    7678    4885+
+           2907    7031    7843    4894
CTETRA      1900       1      39    7073    7074    4078    1761    7172+
+            972     974    3158     975
CTETRA      1901       1    6030     129    6029    6049     813    3693+
+           6297    6295     818    6296
CTETRA      1902       1      35     199    4098    7075    1444    3366+
+           3699     967    1446    3659
CTETRA      1903       1      35    4078    7074    4094     973     975+
+            970     969    4465     971
CTETRA      1904       1     218    5506    5402    5400    3700    3596+
+           1681    1680    3595    5436
CTETRA      1905       1      63    5918    8178    7665    3697    5951+
+           3695     521    5952    7668
CTETRA      1906       1    7074    4094    4078    7523     971    4465+
+            975    7341    4467    4469
CTETRA      1907       1     168    4150    3992    7757    2849    4744+
+           3464    3447    4752    4753
CTETRA      1908       1     168    7001    7002    6116    2221    7021+
+           3518    2222    2224    3354
CTETRA      1909       1    7674    8181    6083    6136    7676    6516+
+           3244    2791    6595    6590
CTETRA      1910       1     253    6135    6142    6136    2787    6615+
+           3432    2788    6589    6614
CTETRA      1911       1    7075    7523    7522    4094    7340    7560+
+           7339     968    4467    4468
CTETRA      1912       1     191      30    4160    4162    1332    1336+
+           1335    1465    1464    4806
CTETRA      1913       1    8162    6083    6999    8181    6510    3701+
+           7028    8169    6516    7027
CTETRA      1914       1    7075    6059    7402    7074    3618    6961+
+           7174    7175    1756    7173
CTETRA      1915       1     254    4013      25    7004    2908    3067+
+           2938    2909     343    3066
CTETRA      1916       1    6125      63    8144    8178     518    3696+
+           6548    6546    3695    8150
CTETRA      1917       1     112     134    8027    8028    1322    1320+
+            713    2982    2958    8040
CTETRA      1918       1     254      25    6086    6999    2938    3501+
+           3702    3703    3502    3455
CTETRA      1919       1     130     129    6028    5237     832    3694+
+           2053    2930    2278    2871
CTETRA      1920       1      39    4078    4077    4047     974    4458+
+           2281    2049    4497    4498
CTETRA      1921       1    8144      63    6124    5918    3696    3479+
+           6530    5950    3697    3704
CTETRA      1922       1    7073    7400    6030    6228    7168    6299+
+           3669    1762    6988    6989
CTETRA      1923       1    7073    7401    7400    6228    7170    7489+
+           7168    1762    6990    6988
CTETRA      1924       1    7661    4176    8174    7054    3705    4877+
+           7662    7108    3706    7109
CTETRA      1925       1    7674    8181    6136    8166    7676    6595+
+           2791    7045    8171    6592
CTETRA      1926       1      23    7382    6081    6084    3478    6513+
+           3491    2519    6505    6511
CTETRA      1927       1    7689    6026    8129    8187    1954    6233+
+           5281    7691    6232    8135
CTETRA      1928       1    6022    6040    5971    8153    6245    1004+
+           3707    6247    6246    6001
CTETRA      1929       1      95    5408    5409    8084    2199    5478+
+           3708     710    5477    5480
CTETRA      1930       1    7101    7496    4164    7497    7287    4817+
+           1697    7288    7585    4816
CTETRA      1931       1    5242    7825    4049    4099    5272    4490+
+           1866    1867    4493    4495
CTETRA      1932       1    8132    6058    5236    8133    6334     449+
+           5288    8139    6338    5289
CTETRA      1933       1    7101    7102    4144    7496    7256    3692+
+           3709    7287    7286    4862
CTETRA      1934       1    7101    4164    7496    4144    1697    4817+
+           7287    3709    4863    4862
CTETRA      1935       1     238    3998     197     255    2187    2731+
+           2178    3710    3711    3712
CTETRA      1936       1    7100    6078    7428    7427    3689    6560+
+           7251    7249    6667    7462
CTETRA      1937       1    6129    7101    7428    7429    1698    7252+
+           6559    6564    7254    7453
CTETRA      1938       1     215     179    6179    6194    1661    1219+
+           1811    1618    1665    6834
CTETRA      1939       1     179    6193    6180    6179    1650    6830+
+           1211    1219    6831    6789
CTETRA      1940       1     163    7084    4117    4103    1079    1815+
+           1216    3713    3714    4591
CTETRA      1941       1    5243    7823    7824    4092    5275    7831+
+           5274    3684    4447    4448
CTETRA      1942       1     163    6180    7084    6187    1210    3634+
+           1079    1082    6799    1083
CTETRA      1943       1    6211     107    6212    6061    1039    2807+
+           6911    6920    2280    6926
CTETRA      1944       1     163    4106    4103    4117    1818    4562+
+           3713    1216    4592    4591
CTETRA      1945       1     162    7083    7084    4103    1087    7202+
+           1080    3715    3656    3714
CTETRA      1946       1     245    4087    4082    4092    3716    4453+
+           3026    3576    4451    4450
CTETRA      1947       1    7083    7515    7514    4038    7324    7569+
+           7323    2503    4530    4532
CTETRA      1948       1    7085    7512    4117    7513    7319    4594+
+           1217    7320    7574    4593
CTETRA      1949       1    7084    4103    7514    7513    3714    4536+
+           7322    7321    4537    7570
CTETRA      1950       1     151    5966     234    4057     980    3717+
+           1965    1420    3609    1970
CTETRA      1951       1    5909    8177    7744    4166    5937    7754+
+           5938    2763    4858    4832
CTETRA      1952       1     220    4159     192    4152    3061    3060+
+           1711    1709    4794    1789
CTETRA      1953       1     184    6158    6157    6164    3594    6696+
+           1249    1252    6715    6716
CTETRA      1954       1    6080    6158    5914    8140    6695    3685+
+           2770    6640    6697    5942
CTETRA      1955       1     163    6180    6187    6185    1210    6799+
+           1082    1090    6790    6801
CTETRA      1956       1     162    6187    6188    6185    1081    6805+
+           1096    1091    6801    6806
CTETRA      1957       1     211    6147     212    6151    1881    2233+
+           1563    2905    6664    2604
CTETRA      1958       1      61    6188    6189    6186    1816    6811+
+            510    2095    6810    6809
CTETRA      1959       1     244    5911     222    5916    2392    3644+
+           2377    2397    5926    2801
CTETRA      1960       1    6159    8141    6072    5915    6691    6361+
+           6687    3543    5944    3544
CTETRA      1961       1      23      25    6085    6081     334     359+
+           2518    3491    3430    6512
CTETRA      1962       1    7056    7541    4186    7542    7377    4914+
+           3718    7378    7598    4912
CTETRA      1963       1    7055    7056    4186    7542    7118    3718+
+           3606    7379    7378    4912
CTETRA      1964       1    4020    7745      80    4025    4720    1624+
+            575    4719    4717     576
CTETRA      1965       1    4166    5909    4168    7744    2763    3509+
+           4830    4832    5938    4833
CTETRA      1966       1      24    7055    7056    4186    3719    7118+
+           1455    3720    3606    3718
CTETRA      1967       1    5968    7812    7669    4007    6011    6010+
+           6008    2578    4236    3721
CTETRA      1968       1    7000    7005    6999      25    7012    7011+
+           7013    2978    3722    3502
CTETRA      1969       1     224    6079    6080    6125    1877    6543+
+           2769    2862    6542    6544
CTETRA      1970       1      24    6084    6097    6105    2520    6416+
+           1360    1460    6451    6452
CTETRA      1971       1      28    6085    6099    6097     357    6418+
+            358    1359    6415    6412
CTETRA      1972       1      35    4098     199    4095    3699    3366+
+           1444     976    4484    3723
CTETRA      1973       1     114    8067     115    5401    3724    3523+
+            717    3527    5429    1687
CTETRA      1974       1     199    6222    6210    6223    1443    6960+
+           1938    1945    6963    6962
CTETRA      1975       1      35    4093    4094    4095     964    4466+
+            969     976    4470    4471
CTETRA      1976       1      52    6209     158    6223    1041    1435+
+           1224    3637    6964    3725
CTETRA      1977       1      52    4093    4095    4089     978    4470+
+            977    1225    4464    4472
CTETRA      1978       1      53    5238    5237    5243    3194    5257+
+           2276    2270    5256    5255
CTETRA      1979       1       6     166    5299    7966    3136    3330+
+            272    3138    3137    5355
CTETRA      1980       1     178    4107    4106    4118    2655    4565+
+           1878    1207    4599    4598
CTETRA      1981       1     163    6185    6179    6180    1090    6787+
+           1218    1210    6790    6789
CTETRA      1982       1     179    6193    6179    6194    1650    6831+
+           1219    1665    6835    6834
CTETRA      1983       1     110    5410    8078    8077    1775    5497+
+           3459    1774    5495    8106
CTETRA      1984       1     215     149    4119    4123    2812    2531+
+           3403    1614    2533    4615
CTETRA      1985       1    7084    7412    7411    6180    7203    7473+
+           7201    3634    6817    6800
CTETRA      1986       1     103    5562    5561    5577    2919    5727+
+           3461    2961    5772    5771
CTETRA      1987       1    7102    4144    7496    7495    3692    4862+
+           7286    7285    4795    7592
CTETRA      1988       1    7776    5244    3993    4053    3585    2092+
+           4298    4296    2091    4295
CTETRA      1989       1     220    4144    7102    4159    3726    3692+
+           1700    3061    4793    3063
CTETRA      1990       1     166    5296    7967    7968    1124    5334+
+           3499    3207    5333    7994
CTETRA      1991       1    5240    7827    7690    4066    5268    5267+
+           5265    3622    4350    3727
CTETRA      1992       1    5569    5554     177     176    5748    1531+
+           1199    1196    1532    1198
CTETRA      1993       1     245     156    5244    4082    3024    3193+
+           3522    3026    2354    3381
CTETRA      1994       1     170    7758    4151    4150    3728    4751+
+           1154    2850    4750    4749
CTETRA      1995       1    7100    7497    4167    7498    7289    4821+
+           1620    7290    7586    4822
CTETRA      1996       1      23    7542    4011    7543    3608    4871+
+           3470    3469    7595    4870
CTETRA      1997       1     160     111     213    6096    1375    2562+
+           2557    1373    1376    2563
CTETRA      1998       1     180    4084    4080    4079    1242    4425+
+           1244    2366    4433    4414
CTETRA      1999       1     125     126     213    3995     797    1572+
+           1568     794     798    3729
CTETRA      2000       1     126     127    7669    3994     805    3573+
+           3572    2582    2583    3668
CTETRA      2001       1    7826    4049    5241    7825    4401    3730+
+           5270    7832    4490    5271
CTETRA      2002       1     161    6107    6108    6105    1378    6464+
+           1071    1459    6457    6463
CTETRA      2003       1    7056    7383    6105    7384    7117    6453+
+           3199    7119    7446    6454
CTETRA      2004       1      80    5909     184      56    3676    2760+
+           3653    2286     488    3660
CTETRA      2005       1     128    4073    7071    7526    2045    3645+
+            835    3646    4380    7347
CTETRA      2006       1     156    6061    6214    6212    3020    6927+
+           3007    2806    6926    6922
CTETRA      2007       1     210    7093    4021    4139    1639    1641+
+           1633    1974    2697    4698
CTETRA      2008       1    4075    4049    5241    7826    4399    3730+
+           2988    4400    4401    5270
CTETRA      2009       1    7827    4052    5240    7826    4369    3520+
+           5268    7830    4396    5269
CTETRA      2010       1      23    7054    7055    7543    3493    7115+
+           3477    3469    7110    7380
CTETRA      2011       1    6040    6042    6039     150    6256    6257+
+           6249    1002     995    1429
CTETRA      2012       1     223    4194    4180    4179    3731    4952+
+           2556    3732    4953    4911
CTETRA      2013       1    7054    6081    7382    7381    3492    6513+
+           7113    7112    6579    7454
CTETRA      2014       1     134    8028    7907    8027    2958    5080+
+           2957    1320    8040    5083
CTETRA      2015       1     151    5971    6041    5972     983    3574+
+           2738    1957    5983    3674
CTETRA      2016       1    5235    8133    6035    8187    5264    6341+
+           2902    5263    8134    6342
CTETRA      2017       1      23    7542    4186    4011    3608    4912+
+           3607    3470    4871    4913
CTETRA      2018       1      80    4172    4168    4020    3654    4844+
+           3655     575    4845    4829
CTETRA      2019       1     152     196     198    6038    1421    2375+
+           1430    1423    1422    1432
CTETRA      2020       1    7063    4001    7534    4000    3482    4212+
+           7363    2155    4210    4214
CTETRA      2021       1    7690    4053    4066    8188    2356    4336+
+           3727    7693    4293    4337
CTETRA      2022       1     220    6129    7101    6078    1699    1698+
+           1693    1692    6558    1695
CTETRA      2023       1    7103    7494    4159    7495    7283    4792+
+           3375    7284    7581    4791
CTETRA      2024       1     115     218    5507    5401    1677    1678+
+            721    1687    1685    3526
CTETRA      2025       1     184     224    4166    4169    2758    2762+
+           2761    1264    2764    4826
CTETRA      2026       1    5244    8188    7823    4053    5277    7828+
+           5276    2091    4293    4292
CTETRA      2027       1     183    7098     186    4170    1304    1792+
+           1263    1807    3561    1808
CTETRA      2028       1    7690    4066    7827    8188    3727    4350+
+           5267    7693    4337    7829
CTETRA      2029       1    7081    7082    4041    7516    7196    2500+
+           3733    7327    7326    4511
CTETRA      2030       1     158    4089    4090    4084    1226    4442+
+           1223    1046    4441    4440
CTETRA      2031       1      80    7744    4168    5909    1625    4833+
+           3655    3676    5938    3509
CTETRA      2032       1      35     199      52    4095    1444    1936+
+            476     976    3723     977
CTETRA      2033       1    7066    4054    7532    7531    3734    4306+
+           7358    7357    4308    7552
CTETRA      2034       1    7068    7395    7067    6050    7153    7152+
+           7154     400    6303    3735
CTETRA      2035       1    7005      25      27      22    3722     364+
+            350     348     333     347
CTETRA      2036       1     207    4138    4137    4140    1556    4693+
+           1566    1553    4705    4713
CTETRA      2037       1     211    4023     230    4134    1888    1890+
+           1885    3566    4663    1906
CTETRA      2038       1     210    6148    6152    6069    1986    6669+
+           1636    1977    6648    6668
CTETRA      2039       1     208    7095     189    4017    3736    3031+
+           2123    2721     758    2722
CTETRA      2040       1     145    4064    4065    4063    1097    4341+
+            947     928    4340    4342
CTETRA      2041       1      37    6037    6044    6045    1499    6282+
+            955    1497    6290    6291
CTETRA      2042       1    6083    6999    8181    7674    3701    7027+
+           6516    3244    7026    7676
CTETRA      2043       1      37    4068    4064    4069     403    4355+
+            940    1581    4354    4353
CTETRA      2044       1    7089    7416    7088    6191    7216    7215+
+           7217    3671    6826    3672
CTETRA      2045       1    7090    7508    7507    4114    7310    7571+
+           7309    2617    4577    4576
CTETRA      2046       1    7002    6116    8165    6115    3354    6521+
+           7048    3511    6523    6522
CTETRA      2047       1      29    6126    6130    6131     374    6574+
+            373    1731    6576    6575
CTETRA      2048       1      97     252     102     106    3171    2538+
+           3172     672    2547     670
CTETRA      2049       1     197    5972    6021    6094    1958    3673+
+           2737    2736    3113    6400
CTETRA      2050       1      29    6140      30    6131     367     366+
+            365    1731    6606    1717
CTETRA      2051       1      29    4147    4157    4148     392    4789+
+            389     390    4734    4787
CTETRA      2052       1     125    4181     160    3996    3737    2559+
+           1577    1058    4899    1053
CTETRA      2053       1     159    3996    4182    3997    1052    4897+
+           1051    1067    4228    4898
CTETRA      2054       1      28    4182     160    4192    1368    1050+
+           1365    1363    4942    1364
CTETRA      2055       1     160    6106    6110    6107    3639    6470+
+           1578    1370    6460    6472
CTETRA      2056       1     159     125     160    3996    1057    1577+
+           1049    1052    1058    1053
CTETRA      2057       1     161    6097    6107    6105    1458    6456+
+           1378    1459    6452    6457
CTETRA      2058       1    7083    6187    7411    7410    3298    6798+
+           7200    7198    6795    7472
CTETRA      2059       1    7091    7090    7507    4029    7223    7309+
+           7308    2626    2700    4581
CTETRA      2060       1    7093    7092    6069    7420    7229    1978+
+           2698    7228    7227    6672
CTETRA      2061       1     208    7094    7093    6152    3616    7232+
+           1638    1637    3738    1640
CTETRA      2062       1      56      80    5909    5910    2286    3676+
+            488    2287    1626    5923
CTETRA      2063       1    7091    7419    7418    6169    7224    7471+
+           7222    3620    6744    6741
CTETRA      2064       1    6999    6086    6083    8162    3455    6507+
+           3701    7028    6506    6510
CTETRA      2065       1     122      46     123    8033    3065    2889+
+            780    1134    2891    2890
CTETRA      2066       1      45    6121    6118    6126     454    6533+
+            465     460    6552    6549
CTETRA      2067       1     127     243    6112    6102    2586    3739+
+            804    3114    2189    6480
CTETRA      2068       1    5969    6091    6114    8151    3740    6496+
+           3590    5997    6491    6499
CTETRA      2069       1    5967    5973     255    5968    5988    3741+
+           3742    5990    5989    3743
CTETRA      2070       1      45    4146    4151    7759    1893    4746+
+           1145     774    4757    4756
CTETRA      2071       1      34    4153    4147    4146     384    4761+
+           1729    1728    4760    4747
CTETRA      2072       1     208    6152    6148    6155    1637    6669+
+           2112    1980    6674    6673
CTETRA      2073       1     210    4140    4139    4138    1554    4704+
+           1974    1557    4705    4701
CTETRA      2074       1    7000    6086    8162    8163    3215    6506+
+           7053    7052    6431    8168
CTETRA      2075       1     194    7922    7921    7961    1414    7948+
+           2313    3744    5058    5055
CTETRA      2076       1      86    5557    5541    5556    3440    5713+
+           2773    3198    5712    5711
CTETRA      2077       1      67    6175    6174    8013    1843    6771+
+           1847     533    6869    6870
CTETRA      2078       1    4026     235      71    4139    3745    1992+
+           3560    4700    1975    1993
CTETRA      2079       1      73    6192    6068    6067    2455    6824+
+           2442    2451    6823    6736
CTETRA      2080       1     235    7092    4139    4026    1972    1976+
+           1975    3745    3746    4700
CTETRA      2081       1    7080    7407    6215    7408    7189    6930+
+           3599    7191    7481    6929
CTETRA      2082       1     204    4102    4045    4100    2158    4513+
+           1504    1507    4515    4505
CTETRA      2083       1      24    4183    4184    4186    1454    4916+
+           1462    3720    4915    4917
CTETRA      2084       1    7056    4183    4186    7541    1457    4915+
+           3718    7377    4896    4914
CTETRA      2085       1      23      24    4186    7055     329    3720+
+           3607    3477    3719    3606
CTETRA      2086       1    4124    5187    7735    7734    1844    5217+
+           4610    4611    5218    7739
CTETRA      2087       1      24    7056    6084    6105    1455    3747+
+           2520    1460    3199    6451
CTETRA      2088       1     161    7057    3997    4183    1074    1077+
+           1076    1453    3631    4901
CTETRA      2089       1      86     143     228    5556    2774    2328+
+           2717    3198    2778    3748
CTETRA      2090       1      20    5557    5558    5542    2320    5715+
+           3316    3425    5714    5716
CTETRA      2091       1     204     241    3938    4102    2572    3749+
+           3530    2158    2164    3533
CTETRA      2092       1    7080    6215    7407    6219    3599    6930+
+           7189    3407    6945    6947
CTETRA      2093       1    7079    6219    7407    7406    3406    6947+
+           7188    7186    6948    7483
CTETRA      2094       1    5181    8121    6171    6172    5233    6760+
+           2728    3633    6759    6761
CTETRA      2095       1     203     204    6221     200    1503    2566+
+           3750    1510    2565    2577
CTETRA      2096       1      24      25      28    6085    3751     360+
+           1361    1362     359     357
CTETRA      2097       1     213    6106    6096    6095    1571    6459+
+           2563    2561    6461    6407
CTETRA      2098       1     213    6106    6095    6104    1571    6461+
+           2561    1754    6462    6444
CTETRA      2099       1      30    6132     192    6127    1340    1341+
+           1333    1718    6573    1733
CTETRA      2100       1     151    5967     234    5966    1956    1966+
+           1965     980    5986    3717
CTETRA      2101       1      47    5918    6124      63    3752    3704+
+           2076    3480    3697    3479
CTETRA      2102       1      62     224    4142    7664    2832    2835+
+           2070    2073    2865    2074
CTETRA      2103       1      62     224    7664    7665    2832    2865+
+           2073     520    2863    7667
CTETRA      2104       1     200    6223    6221    6225    1946    6965+
+           2577    1517    6971    6970
CTETRA      2105       1     197    5967    5972     255    1955    5985+
+           1958    3712    3742    3753
CTETRA      2106       1      72    6071    5184    7679    3754    3755+
+            558    3756    3757    5224
CTETRA      2107       1      52     199    6223     200    1936    1945+
+           3637    1932    1941    1946
CTETRA      2108       1     199    4097    4095    4098    3758    4482+
+           3723    3366    4487    4484
CTETRA      2109       1    5973    8155    5972    6094    6005    6004+
+           5987    3759    6399    3113
CTETRA      2110       1    5972    5973     255    5967    5987    3741+
+           3753    5985    5988    3742
CTETRA      2111       1     238     197    6093    6094    2178    2177+
+           2131    3111    2736    6402
CTETRA      2112       1      69    4030    4028    4031     544    4638+
+           2943     541    4585    4636
CTETRA      2113       1    7093    7420    6152    7421    7228    6670+
+           1640    7230    7463    6671
CTETRA      2114       1     254    6082    6134    6135    3760    6581+
+           2794    2797    6584    6585
CTETRA      2115       1     188    4175    4176    4177    2799    4881+
+           2939    2679    4880    4882
CTETRA      2116       1     188    7661    4176    4175    2793    3705+
+           2939    2799    2314    4881
CTETRA      2117       1    5181    8121    6176    6171    5233    6863+
+            823    2728    6760    6864
CTETRA      2118       1      76    7853     108    7854     568    3371+
+           1770    1766    7892    1769
CTETRA      2119       1    7107    8173    7434    6141    7272    7458+
+           7270    2472    6610    6611
CTETRA      2120       1    6189    7712    3935    7711    6812    3979+
+           2211    6808    7718    3978
CTETRA      2121       1    5188    4124    7734    5187    1845    4611+
+           5219    5199    1844    5218
CTETRA      2122       1     207    6149     212    6147    3761    3762+
+           1561    1880    6642    2233
CTETRA      2123       1    7094    7093    6152    7421    7232    1640+
+           3738    7231    7230    6671
CTETRA      2124       1     208    7094    6152    6160    3616    3738+
+           1637    2125    2780    6698
CTETRA      2125       1    4139     235      71     210    1975    1992+
+           1993    1974    1971    1990
CTETRA      2126       1     238     127    3998     255    2184    2188+
+           2187    3710    3763    3711
CTETRA      2127       1     195    5585    5586    5570    1997    5795+
+           1403    2011    5794    5796
CTETRA      2128       1    5181    8121    6172    8122    5233    6759+
+           3633    5234    8128    6757
CTETRA      2129       1    7092    4026    7505    4139    3746    4643+
+           7305    1976    4700    4699
CTETRA      2130       1      39    6059    7074    6228     409    1756+
+            972    1763    6991    1764
CTETRA      2131       1    7075    4098    4094    7522    3659    4483+
+            968    7339    4485    4468
CTETRA      2132       1    7075    6222    7402    6059    1445    6957+
+           7174    3618    6959    6961
CTETRA      2133       1    4047     128     129    7072    2042     816+
+           2044    2048    1755     814
CTETRA      2134       1     106    7846    7782    7781     676    5015+
+            864    3764    5012    7811
CTETRA      2135       1      24    6105     161    7056    1460    1459+
+           1452    1455    3199    1456
CTETRA      2136       1     254    6082    6083    6086    3760    6509+
+           3765    3702    6508    6507
CTETRA      2137       1    5238    8131    6061    5237    5285    6984+
+           3019    5257    5286    3570
CTETRA      2138       1    7835    3992    7006    7007    4262    3466+
+           7037    7038    3465    7018
CTETRA      2139       1     219    8064    5400     218    2878    5421+
+           3766    3303    1679    1680
CTETRA      2140       1     111     223    4194    4180    2344    3731+
+            707    3767    2556    4952
CTETRA      2141       1    5400     219     247    8063    3766    2429+
+           2418    5419    2877    2416
CTETRA      2142       1     254    6086      25    6082    3702    3501+
+           2938    3760    6508    3428
CTETRA      2143       1      53    6211    6060    6061    1220    6918+
+            474    2279    6920    6919
CTETRA      2144       1    7067    7530    4060    7531    7355    4324+
+           2405    7356    7553    4323
CTETRA      2145       1    7066    6046    7393    6047    2410    6275+
+           7147    2409    6274    6273
CTETRA      2146       1    7836    3992    7006    7835    4261    3466+
+           7036    7839    4262    7037
CTETRA      2147       1     170    6115    6119    8031    2844    6635+
+           1153    1158    6518    6638
CTETRA      2148       1    4006     243    4009     124    2588    3119+
+           4255    1293    3345    3346
CTETRA      2149       1     168    6115    6116    7002    2843    6523+
+           2222    3518    3511    3354
CTETRA      2150       1     127    5968    7670    7669    2581    6009+
+           1740    3573    6008    7672
CTETRA      2151       1     112     190    4189    7755    1315    1328+
+           1326    1394    1392    4923
CTETRA      2152       1     124    6112    6113    6109     792    6490+
+            790     799    6479    6489
CTETRA      2153       1     127    3998     255    5968    2188    3711+
+           3763    2581    2579    3743
CTETRA      2154       1    7071    6051    6049    7398     837    6308+
+           3472    7162    6310    6294
CTETRA      2155       1     180     181     158    6208    1229    1437+
+           1233    1230    1231    1232
CTETRA      2156       1     107    6211    6212    6213    1039    6911+
+           2807    1433    6910    6909
CTETRA      2157       1     158    6223    6209    6221    3725    6964+
+           1435    1438    6965    6950
CTETRA      2158       1      52    4097     199     200    1934    3758+
+           1936    1932    1935    1941
CTETRA      2159       1     107     245      53    4088    3028    2268+
+           1048     686    2285    2284
CTETRA      2160       1      24    6084    6085    6097    2520    6417+
+           1362    1360    6416    6415
CTETRA      2161       1     159    7058    7057    6108    1066    7124+
+           1073    1072    1573    1075
CTETRA      2162       1      24    4186    7056    4183    3720    3718+
+           1455    1454    4915    1457
CTETRA      2163       1     170    7007    7008    7002    2853    7022+
+           2842    3512    7020    7023
CTETRA      2164       1      39    6228    6229    6060    1763    6995+
+           1758     411    6996    6997
CTETRA      2165       1      93      98     103      99     682     746+
+            660     646     743     747
CTETRA      2166       1     163    7085    7084    6180    1212    7205+
+           1079    1210    1213    3634
CTETRA      2167       1    4059    5966    4058    7814    3768    3485+
+           4317    4318    6015    4319
CTETRA      2168       1     179    4117    4121    4118    1215    4608+
+           1655    1205    4600    4609
CTETRA      2169       1     188    6141    6135    6134    2792    6609+
+           2796    2795    6608    6585
CTETRA      2170       1    3998    3988     234    7813    4197    3627+
+           2729    4195    4198    3628
CTETRA      2171       1    7661    8174    4175    7490    7662    4866+
+           2314    7274    7593    4865
CTETRA      2172       1    7813    5968    3998    7812    6012    2579+
+           4195    7817    6011    4196
CTETRA      2173       1    7054    8174    7543    4176    7109    7596+
+           7110    3706    4877    4876
CTETRA      2174       1      42      43     145    6043     433     946+
+            934     435     434     936
CTETRA      2175       1     254    7674    6999    6083    2798    7026+
+           3703    3765    3244    3701
CTETRA      2176       1     118     103     167    5577     745    2925+
+           2922    2962    2961    3273
CTETRA      2177       1      23    6084    6081    6085    2519    6511+
+           3491    2518    6417    6512
CTETRA      2178       1    7055    7056    7383    6084    7118    7117+
+           7116    3476    3747    6455
CTETRA      2179       1     247    5397    5520    7696    3541    3679+
+           3769    2873    3678    5878
CTETRA      2180       1    5581    5300    7613    5304     623    5367+
+           5839    3584    5386    5384
CTETRA      2181       1    5298    7971     167    5593    5345    3770+
+           2911    2913    3771    2912
CTETRA      2182       1     114    5399    7642    5509    3263    5427+
+           3602    3603    3772    5904
CTETRA      2183       1    7057    4183    7541    7540    3631    4896+
+           7376    7375    4895    7597
CTETRA      2184       1    7980    8194      90    5302    7981     610+
+           3504    5374    5371     624
CTETRA      2185       1      28    4187    4184    4192     352    4945+
+            355    1363    4943    4941
CTETRA      2186       1     167    5298    7970    7971    2911    5344+
+           3773    3770    5345    7991
CTETRA      2187       1      22    4191    4185    4187     336    4931+
+            324     353    4934    4933
CTETRA      2188       1    5966    7814    5967     234    6015    6014+
+           5986    3717    3774    1966
CTETRA      2189       1      45    6117    8032    6118     459    6636+
+           3205     465    6532    6637
CTETRA      2190       1      47      62    4156    4142    2069    2834+
+           2085    2071    2070    4781
CTETRA      2191       1      23    4011    4185    4012    3470    4919+
+            325     331    4874    4920
CTETRA      2192       1      23     188     254    6134    2785    2681+
+           2786    3775    2795    2794
CTETRA      2193       1    4013      25      22    4012    3067     333+
+            335    4887     332     330
CTETRA      2194       1      33    6137    8166    7674    3691    6591+
+           3239    2665    3362    7045
CTETRA      2195       1      25    6081    6082    6085    3430    6515+
+           3428     359    6512    6514
CTETRA      2196       1    7082    4041    7515    4038    2500    4512+
+           7325    2502    4531    4530
CTETRA      2197       1      57      60      59    3939     505     522+
+            497     500    2709     501
CTETRA      2198       1     224    5914    7664    7665    2765    5940+
+           2865    2863    5939    7667
CTETRA      2199       1     220    7101    4144    4164    1693    3709+
+           3726    1696    1697    4863
CTETRA      2200       1     162      64    4104      61    1084    2244+
+           3776    1092     524     514
CTETRA      2201       1    5965    7815    4059    7780    6017    4316+
+           3777     857    4259    4315
CTETRA      2202       1    7971    7972    5593    5298    7990    3778+
+           3771    5345    5349    2913
CTETRA      2203       1     179    7086    7085    6193    1653    7208+
+           1214    1650    1654    3658
CTETRA      2204       1    7092    7419    6069    7420    7225    6733+
+           1978    7227    7470    6672
CTETRA      2205       1     167    5578    5593    7911    2923    5818+
+           2912    2920    2924    3779
CTETRA      2206       1    7075    6222    7403    7402    1445    6958+
+           7176    7174    6957    7484
CTETRA      2207       1    5595    5303    5305    7599    1493    5395+
+           1495    5867    5378    5394
CTETRA      2208       1     122     120    7761    7760     783     785+
+            782     787    3357    7784
CTETRA      2209       1     128    7071    7072    7526     835    7166+
+           1755    3646    7347    7346
CTETRA      2210       1    7972    7910    5593    7973    5033    3780+
+           3778    7989    5034    3781
CTETRA      2211       1      41    6055    6051    6056     426    6319+
+            828     425    6325    6322
CTETRA      2212       1    7074    7402    7401    6059    7173    7488+
+           7171    1756    6961    6981
CTETRA      2213       1     199    7075    7076    4098    1446    7178+
+           1949    3366    3659    3638
CTETRA      2214       1      52    4089    4095    4090    1225    4472+
+            977    1222    4442    4473
CTETRA      2215       1    7781    7815    5965    7780    4258    6017+
+           3782    7783    4259     857
CTETRA      2216       1     158     200    6221     181    1449    2577+
+           1438    1437    1451    1439
CTETRA      2217       1    7104    4161    7494    7493    3640    4802+
+           7282    7281    4803    7582
CTETRA      2218       1     220    7101    7102    4144    1693    7256+
+           1700    3726    3709    3692
CTETRA      2219       1    5180    8183    6150    7679    5208    6653+
+           3783    5207    7681    3784
CTETRA      2220       1    7603    5297    5591    7602    5335    3785+
+           5859    7618    5336    5860
CTETRA      2221       1    7100    7497    4164    4167    7289    4816+
+           1623    1620    4821    4818
CTETRA      2222       1    7073    7525    7524    4047    7344    7559+
+           7343    3159    4389    4390
CTETRA      2223       1    5291    5298    5593    7972    5347    2913+
+           3786    5331    5349    3778
CTETRA      2224       1     132    7780     146     102     853    3787+
+           1001     851     854    2191
CTETRA      2225       1    5966    7814    4059    7815    6015    4318+
+           3768    6016    7821    4316
CTETRA      2226       1    7814    4057    5966    4058    4301    3609+
+           6015    4319    4320    3485
CTETRA      2227       1    7071    6049    7399    7398    3472    6293+
+           7164    7162    6294    7437
CTETRA      2228       1    7074    7524    7523    4078    7342    7564+
+           7341     975    4491    4469
CTETRA      2229       1    7070    7397    6051    7398    7159    6311+
+           3468    7161    7440    6310
CTETRA      2230       1     216    6079    6123    6078    1873    6526+
+           1872    1691    6528    6527
CTETRA      2231       1     220    4152    4144    4159    1709    4764+
+           3726    3061    4794    4793
CTETRA      2232       1      29      32    4147      33     371    1730+
+            392     377    1894     393
CTETRA      2233       1     125    6106     160     213    1570    3639+
+           1577    1568    1571    2557
CTETRA      2234       1     100     146    8023    6033     931    3442+
+            920    1917    3241    6348
CTETRA      2235       1     119    5563    5578    5579    3232    5775+
+            755    1475    5777    5776
CTETRA      2236       1     125     160    4181     213    1577    2559+
+           3737    1568    2557    2560
CTETRA      2237       1    7714    3933    3932    6217    3983    3949+
+           3984    6937    3070    3788
CTETRA      2238       1     161    7057    6105    6108    1074    3200+
+           1459    1071    1075    6463
CTETRA      2239       1    7661    6141    6134    8173    2471    6608+
+           2383    7663    6610    6583
CTETRA      2240       1     188    7107    7661    4175    1287    7273+
+           2793    2799    2315    2314
CTETRA      2241       1    7054    6134    6081    7381    2384    6580+
+           3492    7112    6582    6579
CTETRA      2242       1    7056    6105    7383    6084    3199    6453+
+           7117    3747    6451    6455
CTETRA      2243       1     187     188    4015    4014    1284    2683+
+           3233    1281    1285    4785
CTETRA      2244       1     187     253    4158    4015    3433    2670+
+           1277    3233    2682    4783
CTETRA      2245       1     221    6128    6122    6127    1715    6557+
+           1725    1734    6556    6555
CTETRA      2246       1     192    6129    6128    6133    1791    6563+
+           1712    3789    6565    6566
CTETRA      2247       1      47    5913    5918    7665    3687    5934+
+           3752    2088    5954    5952
CTETRA      2248       1     195     226    7922    7923    2311    2310+
+           1415    2933    2935    7949
CTETRA      2249       1     221    6128    6123    6122    1715    6562+
+           2831    1725    6557    6541
CTETRA      2250       1     220    6129    6123    6128    1699    6561+
+           2833    1713    6563    6562
CTETRA      2251       1    7725    4105    3939    7726    4538    3529+
+           3970    7731    4539    3971
CTETRA      2252       1     216    4165    4164    4143    1798    4819+
+           1622    1702    4861    4864
CTETRA      2253       1      30    6132    6131    6140    1340    6578+
+           1717     366    6601    6606
CTETRA      2254       1      86    5557    5542    5541    3440    5714+
+           3424    2773    5713    5669
CTETRA      2255       1      30    4157    4153    4160     388    4790+
+            380    1336    4797    4796
CTETRA      2256       1      34      47    6121    6122    1720     457+
+            463    1722    1721    6538
CTETRA      2257       1     191      31    4163    7105    1349    1272+
+           3790    1350    1276    1275
CTETRA      2258       1    3986     198     196    7065    2141    2375+
+           2734    2732    3791    2406
CTETRA      2259       1    7065    7532    3986    7533    7359    4206+
+           2732    7360    7544    4203
CTETRA      2260       1    7960    5586    5295    5294    1402    3792+
+           5319    5316    1407    5317
CTETRA      2261       1     196    7065    7066    4054    2406    7148+
+           2402    2735    2733    3734
CTETRA      2262       1     198    7064    7065    3986    2144    7145+
+           3791    2141    2145    2732
CTETRA      2263       1     155      77      74      17    3258     572+
+           1023    3145    3278    3181
CTETRA      2264       1    4149    7834    7007    7835    4738    7039+
+           3514    4739    7840    7038
CTETRA      2265       1    7064    6019    7392    7391    2146    6277+
+           7143    7141    6392    7443
CTETRA      2266       1    6134     254      25    6082    2794    2938+
+           3429    6581    3760    3428
CTETRA      2267       1      23      24    7055    6084     329    3719+
+           3477    2519    2520    3476
CTETRA      2268       1      23    4011    4186    4185    3470    4913+
+           3607     325    4919    4921
CTETRA      2269       1    6046    7394    7067    7066    6292    7150+
+           2414    2410    7149    7151
CTETRA      2270       1      57      58    4105      61     493     492+
+            491     506    2096    3297
CTETRA      2271       1    5587    5293    7607    5294    1412    5313+
+           5851    3436    5312    5310
CTETRA      2272       1    6184      58     171    3935    2204    2097+
+           2202    2203    2212    2105
CTETRA      2273       1    4168      80    5909     184    3655    3676+
+           3509    3510    3653    2760
CTETRA      2274       1     183    4170    4172    4174    1807    4843+
+           1259    1253    4853    4854
CTETRA      2275       1     194    5571     195    5586    3793    3794+
+           1404    1400    5797    1403
CTETRA      2276       1     109    5512      85    5527    3397    3399+
+           3396    3408    5619    3286
CTETRA      2277       1     183    4170    4169    4172    1807    4837+
+           1261    1259    4843    4842
CTETRA      2278       1     203    6216     240    6219    3795    2712+
+           3539    3537    6946    3538
CTETRA      2279       1     203    6220     204    6216    2836    3796+
+           1503    3795    6951    2575
CTETRA      2280       1     204    4091    4045    4085    1509    4437+
+           1504    2564    4434    4417
CTETRA      2281       1     203    6219    7079    6224    3537    3406+
+           1520    1521    6968    1522
CTETRA      2282       1    7540    7058    3997    7539    7374    1064+
+           4223    7548    7373    4222
CTETRA      2283       1     160    4181    4182    3996    2559    4900+
+           1050    1053    4899    4897
CTETRA      2284       1      22      24      25      28     327    3751+
+            333     351    1361     360
CTETRA      2285       1     208     209    4022     189    1552    1551+
+           1548    2123    2113    2116
CTETRA      2286       1     210    4138    4139    4021    1557    4701+
+           1974    1633    4689    4698
CTETRA      2287       1     199    4096    4097    7520    3797    4480+
+           3758    3365    4477    4489
CTETRA      2288       1    7090    6066    7418    7417    2701    6742+
+           7221    7219    6822    7475
CTETRA      2289       1    8184    5189    4141    7733    5222     562+
+           4707    7742    5221    4706
CTETRA      2290       1     235    7419    6169    6069    2702    6744+
+           3619    1979    6733    6745
CTETRA      2291       1    6090     131    4194     223    2690    2349+
+            705    2347    3798    3731
CTETRA      2292       1    7088    7416    7415    6191    7215    7476+
+           7213    3672    6826    6827
CTETRA      2293       1    7701    5305    7977    5304    3321    5392+
+           3323    3799    5390    5389
CTETRA      2294       1    7089    7508    4114    4116    7311    4577+
+           2620    1183    4587    4589
CTETRA      2295       1     174    7089    6191    6190    1182    3671+
+           3670    2437    3652    6828
CTETRA      2296       1    7088    7509    4116    4126    7313    4588+
+           1186    2855    4624    4625
CTETRA      2297       1     114    7642    5399    5401    3602    5427+
+           3263    3527    5424    5426
CTETRA      2298       1     192    7103    6133    6138    1346    3666+
+           3789    1357    1358    6599
CTETRA      2299       1    7066    4054    7531    4060    3734    4308+
+           7357    2404    4325    4323
CTETRA      2300       1    7065    7532    7066    4054    7359    7358+
+           7148    2733    4306    3734
CTETRA      2301       1       5    7977    7978    5304    3393    7984+
+           3524    3525    5389    5388
CTETRA      2302       1     167    7913    7912    7970    2918    7939+
+           3230    3773    5040    5037
CTETRA      2303       1    7063    7391    7390    6092    7140    7445+
+           7138    3665    6393    6436
CTETRA      2304       1     196    7067    7066    6046    2403    7151+
+           2402    1589    2414    2410
CTETRA      2305       1    7065    7393    7392    6047    7146    7435+
+           7144    2407    6273    6276
CTETRA      2306       1      91      21    5567    5568    2297     323+
+           3800    2295    2298    5743
CTETRA      2307       1      46    6117    6124    6023     458    6534+
+           2075    2892    6535    6529
CTETRA      2308       1    7063    7534    4001    7535    7363    4212+
+           3482    7364    7545    4213
CTETRA      2309       1     107    6213    6209    6211    1433    6904+
+           1040    1039    6910    6912
CTETRA      2310       1    7005    7836    4178    7006    7035    4890+
+           3457    7014    7036    1387
CTETRA      2311       1       6      12    5292    5589     666    3801+
+            274     271    3802     273
CTETRA      2312       1    5292    5299    5589    7605    5352     270+
+            273    5327    5353    5855
CTETRA      2313       1     232     222    4128    4024    2380    3803+
+           1912    1904    3804    4648
CTETRA      2314       1     211     231     232    6146    1913    1896+
+           3565    1907    1898    1897
CTETRA      2315       1     183     185     184    6164    1255    1307+
+           1248    1251    1270    1252
CTETRA      2316       1     207    4138    4022    4133    1556    4688+
+           1547    1558    4691    4665
CTETRA      2317       1    7082    4041    7516    7515    2500    4511+
+           7326    7325    4512    7568
CTETRA      2318       1     242    7082    7081    6205    2498    7196+
+           2170    2494    2499    3288
CTETRA      2319       1      14    5293    7963    5292    2477    5309+
+           3307    3506    5328    5329
CTETRA      2320       1      74    7853      75    7852     565     564+
+            563    3150    7893    3154
CTETRA      2321       1     240    4100    7080    4101    2160    3578+
+           3805    2174    4516    3579
CTETRA      2322       1    7081    6215    6205    7408    2169    6931+
+           3288    7192    6929    6933
CTETRA      2323       1    7099    7498    4170    7499    7291    4834+
+           3427    7292    7588    4835
CTETRA      2324       1     216    4164    4165    4167    1622    4819+
+           1798    1619    4818    4820
CTETRA      2325       1     186    7098    7099    4170    1792    7247+
+           1795    1808    3561    3427
CTETRA      2326       1    7105    6143    7432    7104    1351    6620+
+           7264    7265    1353    7263
CTETRA      2327       1    4141      72    4137    4140     561    2720+
+           4712    4710    2064    4713
CTETRA      2328       1      72    4141    4137    4136     561    4712+
+           2720    2062    4711    4695
CTETRA      2329       1     195    7959    5295    7958    2771    5320+
+           3806    1995    8003    5324
CTETRA      2330       1    5304       5    5581    7979    3525     630+
+           3584    5387     629     622
CTETRA      2331       1     211    4134    4133    4023    3566    4664+
+           1559    1888    4663    4662
CTETRA      2332       1     228     143     195    5556    2328    2004+
+           2327    3748    2778    2777
CTETRA      2333       1     209    6155    6147    6154    1982    6675+
+           1882    1883    6680    6679
CTETRA      2334       1     210      71      72    6070    1990    2057+
+           1987    1988    1991    2723
CTETRA      2335       1     207    6147    6148    6149    1880    6643+
+           1983    3761    6642    6641
CTETRA      2336       1     209    4133    4022    4023    1564    4665+
+           1551    1889    4662    4666
CTETRA      2337       1    7067    6050    7394    6046    3735    6302+
+           7150    2414    6300    6292
CTETRA      2338       1     215    6178    6194    6179    1630    6836+
+           1618    1811    6777    6834
CTETRA      2339       1     175      91    5301    5583    1187    1191+
+           1190    3349    2293    2308
CTETRA      2340       1     178    4110    4106    4107    2816    4561+
+           1878    2655    4563    4565
CTETRA      2341       1     162    4038    4103    4104    3807    4540+
+           3715    3776    4542    4544
CTETRA      2342       1    5188    7734    4031    7733    5219    4630+
+           3488    5220    7740    4635
CTETRA      2343       1    7085    7412    6180    6193    7204    6817+
+           1213    3658    6832    6830
CTETRA      2344       1     179    4117    7085    4121    1215    1217+
+           1214    1655    4608    1821
CTETRA      2345       1     162    4106      61    4104    1817    1819+
+           1092    3776    4560     514
CTETRA      2346       1     175    7957    5301    7956    3386    5363+
+           1190    3259    8005    5364
CTETRA      2347       1     177    5585    5584    5290    2000    5792+
+           3808    3384    3562    3809
CTETRA      2348       1     164    6050    6046    6045    1592    6300+
+           1588    1498    6301    6288
CTETRA      2349       1    3934    7713    6207    3933    3981    6890+
+           2715    3953    3982    3556
CTETRA      2350       1    7529      36    4071    4070     419    1593+
+           4366    4362     404    4367
CTETRA      2351       1    7068     164    7067    4071    1591    2413+
+           7154    3593    1579    3810
CTETRA      2352       1    7066    7531    7067    4060    7357    7356+
+           7151    2404    4323    2405
CTETRA      2353       1    7067    6050    7395    7394    3735    6303+
+           7152    7150    6302    7439
CTETRA      2354       1      46    6124      47    5918    2075    2076+
+            456    3589    3704    3752
CTETRA      2355       1      80    4168    7744    7745    3655    4833+
+           1625    1624    4828    7753
CTETRA      2356       1     192    6128    6132    6133    1712    6571+
+           1341    3789    6566    6572
CTETRA      2357       1     191    7104    7103    6138    1355    7262+
+           1344    1354    1352    1358
CTETRA      2358       1      47    7665    7664    5913    2088    7667+
+           2072    3687    5954    5953
CTETRA      2359       1     221    4156    4143    4152    2086    4778+
+           1708    1710    4777    4762
CTETRA      2360       1      28    6097    6099    6096    1359    6412+
+            358    1372    6414    6413
CTETRA      2361       1     209    4022    4018    4023    1551    4725+
+           2115    1889    4666    4726
CTETRA      2362       1     125    3995    4181    3996     794    4903+
+           3737    1058    4234    4899
CTETRA      2363       1     125    3996    4005    3995    1058    4229+
+           1299     794    4234    4231
CTETRA      2364       1    7059    7386     159    6113    7126    3690+
+           1061    3681    6487    1574
CTETRA      2365       1    7386     159    6113    6110    3690    1574+
+           6487    6485    1575    6486
CTETRA      2366       1     176    5554    5553    5569    1532    5703+
+           3084    1196    5748    5747
CTETRA      2367       1     177     141    7924    7925    1540    2779+
+           2013    3811    3267    7951
CTETRA      2368       1     159     125    7059    6113    1057    1062+
+           1061    1574     806    3681
CTETRA      2369       1      60    6189    6063    6064     508    6815+
+           2495    3557    6813    6816
CTETRA      2370       1     175    5290    5301    7957    3385    5362+
+           1190    3386    5307    5363
CTETRA      2371       1    7061    6111    7388    7060    3664    6475+
+           7132    7133    3682    7131
CTETRA      2372       1     125     213    4181    3995    1568    2560+
+           3737     794    3729    4903
CTETRA      2373       1     167    7970    5298    5297    3773    5344+
+           2911    1119    5341    5342
CTETRA      2374       1     124     125    4004    4005     793    1060+
+           1295    1298    1299    4230
CTETRA      2375       1    7059    7387    7386    6113    7128    7451+
+           7126    3681    6488    6487
CTETRA      2376       1    7060    7387    6112    6111    7129    6483+
+            789    3682    6482    6481
CTETRA      2377       1     124    7060    4004    7059     791    1297+
+           1295    3680    7130    1063
CTETRA      2378       1      22      24    4184    4185     327    1462+
+            354     324     328    4922
CTETRA      2379       1    7094    4017    7503    7095    3617    4724+
+           7301    7235     758    7300
CTETRA      2380       1     235    7091    6066    6169    2625    2629+
+           2628    3619    3620    6743
CTETRA      2381       1     208    4017    7094    7095    2721    3617+
+           3616    3736     758    7235
CTETRA      2382       1    7093    7504    4021    4139    7303    4697+
+           1641    2697    4696    4698
CTETRA      2383       1    7094    7503    4017    4021    7301    4724+
+           3617    2893    4718    4722
CTETRA      2384       1    7099    4170    7498    4167    3427    4834+
+           7291    3426    4836    4822
CTETRA      2385       1     220      62    4143     221    1704    1706+
+           1703    1707    2830    1708
CTETRA      2386       1      24    7055    6084    7056    3719    3476+
+           2520    1455    7118    3747
CTETRA      2387       1    8164    7001    6100    6025    7050    3515+
+           6427    6429    2981    6422
CTETRA      2388       1     186    7100    7099    6156    1805    7250+
+           1795    1803    1806    3661
CTETRA      2389       1    3932    6217    6218    7714    3788    6938+
+           3812    3984    6937    6936
CTETRA      2390       1       5    7905    7904    7978     292    7931+
+           1601    3524    5024    5021
CTETRA      2391       1    4178    3992    7006    7836    4891    3466+
+           1387    4890    4261    7036
CTETRA      2392       1      90    5582    5300    5302     626    3813+
+            620     624     627    5373
CTETRA      2393       1     162      64      61    6188    1084     524+
+           1092    1096    1095    1816
CTETRA      2394       1     217    4107    4118    4119    2756    4599+
+           2523    2532    4604    4605
CTETRA      2395       1     175    5584    5301    5290    3348    3350+
+           1190    3385    3809    5362
CTETRA      2396       1     178    6186    6182    6181    1820    6793+
+           2208    1201    6791    6766
CTETRA      2397       1     171    6182    6184    6173    2205    6785+
+           2202    2657    6768    6784
CTETRA      2398       1    7098    4174    7499    4170    1221    4851+
+           7293    3561    4853    4835
CTETRA      2399       1    7661    6134    7381    8173    2383    6582+
+           7111    7663    6583    7455
CTETRA      2400       1      24    4186    4184    4185    3720    4917+
+           1462     328    4921    4922
CTETRA      2401       1    5551       5      21    5566    3300    3133+
+            322    5739    2307     321
CTETRA      2402       1      23    6081    7054    6134    3491    3492+
+           3493    3775    6580    2384
CTETRA      2403       1      34    6127    6126    6131    1719    6553+
+            461    1716    6577    6576
CTETRA      2404       1    7055    7382    6084    7383    7114    6505+
+           3476    7116    7452    6455
CTETRA      2405       1     188    6135    6141    6142    2796    6609+
+           2792    3434    6615    6616
CTETRA      2406       1      25    7005    6999    7004    3722    7011+
+           3502    3066    7010    7009
CTETRA      2407       1     213    4180    4181    3995    2554    4909+
+           2560    3729    4908    4903
CTETRA      2408       1      31    6142    6139     253    3235    6613+
+           3236    2669    3432    3814
CTETRA      2409       1     187    6143    6144    7432    3629    6622+
+           3355    3356    6620    6631
CTETRA      2410       1    5507    7643    5508     114    5907    5906+
+           5604     720    3815     728
CTETRA      2411       1      29      32      34    4147     371    1726+
+            382     392    1730    1729
CTETRA      2412       1      29      31     253    4148     368    2669+
+           3516     390    2672    2671
CTETRA      2413       1     211    4132    4133    4134    1891    4680+
+           1559    3566    4679    4664
CTETRA      2414       1     127    4007    5968    7669    2580    2578+
+           2581    3573    3721    6008
CTETRA      2415       1     236    6150     212    7679    3816    2695+
+           2066    2068    3784    2067
CTETRA      2416       1     201    7975    5305    5303    3586    5396+
+           1488    1494    5382    5395
CTETRA      2417       1    7086    4121    7512    7511    1822    4606+
+           7318    7317    4607    7575
CTETRA      2418       1    7083    7084    4103    7514    7202    3714+
+           3656    7323    7322    4536
CTETRA      2419       1     162    4038      64    7083    3807    2501+
+           1084    1087    2503    1088
CTETRA      2420       1    7082    6062    7409    6205    3598    6895+
+           7195    2499    6897    6896
CTETRA      2421       1    7083    6187    7410    6062    3298    6795+
+           7198    1089    6797    6796
CTETRA      2422       1     242    7081    4041    4101    2170    3733+
+           2489    2173    2175    4508
CTETRA      2423       1      27    4187    4188    4190     356    4936+
+           1396     346    4935    4928
CTETRA      2424       1    7063    7062    6101    7390    7139    2183+
+           3625    7138    7137    6434
CTETRA      2425       1     201    5594    5595    5579    2965    5822+
+           1492    1476    5821    5823
CTETRA      2426       1    7064    7533    3986    4000    7361    4203+
+           2145    2156    4205    4204
CTETRA      2427       1      39    7072    7073    4047     811    7169+
+           1761    2049    2048    3159
CTETRA      2428       1     201    5303    7974    7975    1494    5381+
+           3817    3586    5382    7987
CTETRA      2429       1    5594    7973    5303    5291    3818    5380+
+           3819    3820    5332    5379
CTETRA      2430       1      52    6223     158     200    3637    3725+
+           1224    1932    1946    1449
CTETRA      2431       1      39    6228    6030    6229    1763    6989+
+            812    1758    6995    6994
CTETRA      2432       1      72    7679     212    6150    3756    2067+
+           2059    3821    3784    2695
CTETRA      2433       1     189    6161    6166    6162    2120    6724+
+           3822    2232    6708    6722
CTETRA      2434       1     235    6070    6069    6169    1989    6649+
+           1979    3619    6751    6745
CTETRA      2435       1    5594    7600    5593    5291    5865    5864+
+           5819    3820    5376    3786
CTETRA      2436       1     111    8027    6090    6089     709    6492+
+            706    1324    6493    6410
CTETRA      2437       1    4010    5965    7816    5964    2694    6018+
+           4257    2688    5978    5993
CTETRA      2438       1     207    4138    4133    4137    1556    4691+
+           1558    1566    4693    4692
CTETRA      2439       1    7911    7972    7910    5593    5036    5033+
+           7937    3779    3778    3780
CTETRA      2440       1    4019      81     189     209    1312    1309+
+           1313    2382    2117    2113
CTETRA      2441       1    6033     100     146    6039    1917     931+
+           3241    6241    1921    3240
CTETRA      2442       1     150    6032    6039    6040     996    6242+
+           1429    1002    6248    6249
CTETRA      2443       1     101      93     136    8022     649    3559+
+            871    2803     648     867
CTETRA      2444       1     145    6036    6033    6034     954    6238+
+           1920    3441    6240    6239
CTETRA      2445       1      26     133     248     202    2952    2515+
+           3049    2951    2512    3056
CTETRA      2446       1     145     140    5235    6035    1929    3003+
+           3823     935    3004    2902
CTETRA      2447       1      28     111    6096      27    1374    1376+
+           1372     362    2350    1377
CTETRA      2448       1     250    8087    7845    7846    3641    5178+
+           3394    3824    5175    7900
CTETRA      2449       1     112     133      11     249    1323    2954+
+           2953    3252    2516    3254
CTETRA      2450       1     111    4193    4194    4189    1398    4954+
+            707    1327    4947    4955
CTETRA      2451       1    5912    7747    4130    7746    5958    4658+
+           2885    5959    7750    4660
CTETRA      2452       1      61    6186     178    6185    2095    1820+
+           1209    1094    6792    1203
CTETRA      2453       1      81     222    5915    6159    1747    2927+
+           2289    2291    2290    3543
CTETRA      2454       1     172    8014    6174    6173    1837    6868+
+           1851    2656    6867    6769
CTETRA      2455       1     160    4192    4182    4181    1364    4942+
+           1050    2559    4949    4900
CTETRA      2456       1     124     125    7059    4004     793    1062+
+           3680    1295    1060    1063
CTETRA      2457       1     183    6157     186    6163    1250    1266+
+           1263    2861    6710    1794
CTETRA      2458       1     124     127    4006     243     803    1294+
+           1293    3345    2586    2588
CTETRA      2459       1    5594    5291    5303    7600    3820    5379+
+           3819    5865    5376    5377
CTETRA      2460       1    5291    7973    7972    5593    5332    7989+
+           5331    3786    3781    3778
CTETRA      2461       1     160     213     111    4193    2557    2562+
+           1375    1367    2558    1398
CTETRA      2462       1     126    4180    3995    3994    2555    4908+
+            798    2582    4910    4240
CTETRA      2463       1    7601    5593    5291    5298    5863    3786+
+           5348    5346    2913    5347
CTETRA      2464       1     223    6090    6104    6095    2347    6443+
+           1752    2345    6411    6444
CTETRA      2465       1    7867    7760     120     121    4970    3357+
+            769     770    3358     766
CTETRA      2466       1       1    7699       4    7700     262    2509+
+            266     264    7706     265
CTETRA      2467       1     203    6216    6219    6220    3795    6946+
+           3537    2836    6951    6952
CTETRA      2468       1     204    6216    6220    6217    2575    6951+
+           3796    2573    6944    6953
CTETRA      2469       1     204     181    3932    6218    2567    3825+
+           3531    2568    2569    3812
CTETRA      2470       1    7601    7600    5291    5593    7626    5376+
+           5348    5863    5864    3786
CTETRA      2471       1     203    6219    6224    6220    3537    6968+
+           1521    2836    6952    6969
CTETRA      2472       1    5965    7815    5966    4059    6017    6016+
+           5982    3777    4316    3768
CTETRA      2473       1     200    4085    4090    4091    1448    4435+
+           1933    1513    4434    4436
CTETRA      2474       1      10    5565       4    7699    2507    2505+
+            286    2508    5872    2509
CTETRA      2475       1     180    6208     157    6201    1230    1235+
+           1234    2363    6900    2360
CTETRA      2476       1     204    6218    6220    6221    2568    6955+
+           3796    2566    6954    6956
CTETRA      2477       1       5      21    5566      90    3133     321+
+           2307     616    1595    2306
CTETRA      2478       1     112    6089     111    6098    1325    1324+
+            714    1317    6403    1319
CTETRA      2479       1      90    7903    7980    7979     615    5020+
+           3504     619    5019    7982
CTETRA      2480       1     162    7083    4103    4038    1087    3656+
+           3715    3807    2503    4540
CTETRA      2481       1      22    4190    4191    4187     345    4937+
+            336     353    4935    4934
CTETRA      2482       1    6207    3934    6064    7712    2715    3826+
+           6891    6889    3980    6814
CTETRA      2483       1      64    4038    4104    4039    2501    4542+
+           2244    2243    4534    4543
CTETRA      2484       1    7002    8164    6116    7001    7049    6519+
+           3354    7021    7050    2224
CTETRA      2485       1    6189    7712    3934    3935    6812    3980+
+           3296    2211    3979    3957
CTETRA      2486       1     192    4160    4152    4159    1337    4798+
+           1789    3060    4799    4794
CTETRA      2487       1     220    4152    4143    4144    1709    4762+
+           1703    3726    4764    4763
CTETRA      2488       1      52    6210    6209    6223    1937    6913+
+           1041    3637    6962    6964
CTETRA      2489       1      29     253    6139      33    3516    3814+
+            378     377    3517     379
CTETRA      2490       1     191     192    6132    6138    1334    1341+
+           1339    1354    1357    6600
CTETRA      2491       1      62      63    7665      47     517     521+
+            520    2069    3480    2088
CTETRA      2492       1      27    6096    6099    6098    1377    6413+
+            363    1382    6408    6425
CTETRA      2493       1     161    7056    7057    4183    1456    7121+
+           1074    1453    1457    3631
CTETRA      2494       1      23    4012    4176    4011     331    4875+
+           3471    3470    4874    4873
CTETRA      2495       1     152     198    4056     197    1430    2370+
+           2740    1426    2367    2371
CTETRA      2496       1     152     164     196    6048    1102    1583+
+           1421    1424    1587    1425
CTETRA      2497       1    7824    5242    4076    7825    5273    3554+
+           4456    7833    5272    4492
CTETRA      2498       1     203    7079    4100    4044    1520    3827+
+           1506    2837    3601    4504
CTETRA      2499       1     159     160    6110    6107    1049    1578+
+           1575    1567    1370    6472
CTETRA      2500       1      35      52    6210    6060     476    1937+
+            387     386     475    6915
CTETRA      2501       1     161    4182    4184    4183    1055    4918+
+           1461    1453    4902    4916
CTETRA      2502       1    7713    3933    6217    6207    3982    3070+
+           6941    6890    3556    6942
CTETRA      2503       1      28    6097    6096    6107    1359    6414+
+           1372    1371    6456    6458
CTETRA      2504       1     159    6108    6107    6110    1072    6464+
+           1567    1575    6473    6472
CTETRA      2505       1      53    5238    6061    5237    3194    3019+
+           2279    2276    5257    3570
CTETRA      2506       1     216    6079    6078    6156    1873    6528+
+           1691    1804    6684    6683
CTETRA      2507       1     216    7101    7100    6078    1694    7253+
+           1621    1691    1695    3689
CTETRA      2508       1    7100    7497    7101    4164    7289    7288+
+           7253    1623    4816    1697
CTETRA      2509       1     204    4046    4045    4102    2570    4418+
+           1504    2158    4514    4513
CTETRA      2510       1     235    4026      71    4029    3745    3560+
+           1992    2622    4642    2699
CTETRA      2511       1    7093    7504    4139    7505    7303    4696+
+           2697    7304    7579    4699
CTETRA      2512       1    7714    6200    3932    7715    6872    3828+
+           3984    7721    6871    3985
CTETRA      2513       1     212    4132    4137    4133    1892    4694+
+           1565    1562    4680    4692
CTETRA      2514       1     208    4021    4017    4022    1634    4722+
+           2721    1548    4690    4723
CTETRA      2515       1     212    6151    6147    6149    2604    6664+
+           2233    3762    6663    6642
CTETRA      2516       1    5916    8143    8142    6076    5947    8148+
+           5946    2591    6372    6373
CTETRA      2517       1     130    4099     129    5242    1864    2824+
+            832    1865    1867    2823
CTETRA      2518       1     141    7924    7925    8010    2779    7951+
+           3267    3318    5117    5116
CTETRA      2519       1     128      41    7071    4073     829     836+
+            835    2045    2046    3645
CTETRA      2520       1      46    6023    6124    5918    2892    6529+
+           2075    3589    3829    3704
CTETRA      2521       1    7107    7434    6145    6141    7270    6625+
+           1291    2472    6611    6627
CTETRA      2522       1     187    4014    4158    4163    1281    4784+
+           1277    1271    4808    4809
CTETRA      2523       1    6125    7665      63    8178     519     521+
+            518    6546    7668    3695
CTETRA      2524       1     246    7762    4130    7761    2387    4659+
+           2884    2883    7800    4657
CTETRA      2525       1     188    4177    4015    4175    2679    4878+
+           2683    2799    4880    4869
CTETRA      2526       1    7106    6145    7434    7433    2782    6625+
+           7269    7267    6626    7460
CTETRA      2527       1      23    7661    7054    4176    3830    7108+
+           3493    3471    3705    3706
CTETRA      2528       1    7063     238    7062    4001    3483    2181+
+           7139    3482    2140    3611
CTETRA      2529       1     211    4135    4132    4134    1915    4677+
+           1891    3566    4676    4679
CTETRA      2530       1     209    4019     230    4023    2382    2238+
+           1886    1889    4730    1890
CTETRA      2531       1     231    6146    6151    6074    1898    6665+
+           2602    2266    6658    6661
CTETRA      2532       1     169    8008     206    7927    2897    3089+
+           3132    2302    5120    3390
CTETRA      2533       1    7745    5911    4025    7746    5961    3643+
+           4717    7751    5960    4656
CTETRA      2534       1     230    6153    6161    6154    2235    6704+
+           2121    1887    6682    6705
CTETRA      2535       1     232    4134    4128    4135    1905    4668+
+           1912    1910    4676    4671
CTETRA      2536       1     230    4023    4019    4024    1890    4730+
+           2238    1903    4669    4728
CTETRA      2537       1     149     217     225    6177    1924    2754+
+           2082    1925    1926    3604
CTETRA      2538       1      91    5583    5568    5567    2293    5788+
+           2295    3800    5787    5743
CTETRA      2539       1     178    4111    4110    4107    2653    4553+
+           2816    2655    4564    4563
CTETRA      2540       1     172    6182    6173    6174    2481    6768+
+           2656    1851    6767    6769
CTETRA      2541       1    5970    8152    6087    6022    5999    6387+
+           3831     850    6389    6390
CTETRA      2542       1     137    7776    7775    7852     890    7791+
+           3152    3151    5003    5000
CTETRA      2543       1      35    4095    4094    4098     976    4471+
+            969    3699    4484    4483
CTETRA      2544       1     118      97     102      98     760    3172+
+           2537     742     641    3456
CTETRA      2545       1     105     132    8024     102     846    2548+
+           2542     667     851    2543
CTETRA      2546       1     158    6221    6209    6208    1438    6950+
+           1435    1232    6949    6903
CTETRA      2547       1     107    4089    4084    4083     685    4441+
+           1045    3575    4443    4432
CTETRA      2548       1    7812    4007    5968    3998    4236    2578+
+           6011    4196    4244    2579
CTETRA      2549       1      74     153     138     155    1008    1009+
+           1011    1023    1017    3148
CTETRA      2550       1    4026    7092    7506     235    3746    7306+
+           4641    3745    1972    2696
CTETRA      2551       1     109      20    5528    5527    3187    3190+
+           3189    3408    3410    5621
CTETRA      2552       1     189    6155    6162    6160    2126    6702+
+           2232    2124    6699    6703
CTETRA      2553       1     105     132    5965    5970     846     856+
+            855     848     845    5977
CTETRA      2554       1     131     134    8027     133    3223    1320+
+           3222    2948     861    1321
CTETRA      2555       1      69     251      73      71    2945    2450+
+            557     546    2614    2056
CTETRA      2556       1     197    3987    4056    3988    2368    4304+
+           2371    3832    4201    4303
CTETRA      2557       1     103     166    5576      77    1113    1123+
+           1122    3208    3231    3270
CTETRA      2558       1     159     161    3997    4182    1054    1076+
+           1067    1051    1055    4898
CTETRA      2559       1    8180    6091    7670    8151    6450    3833+
+           7673    8156    6491    5996
CTETRA      2560       1      81    4019    4020    4024    1312    4729+
+            578    2237    4728    4721
CTETRA      2561       1      81     185     184    4172    1305    1307+
+           1306    1314    1260    3550
CTETRA      2562       1     150    5966    4057    4058     981    3609+
+           1418    3487    3485    4320
CTETRA      2563       1     151    6042     197    6021     994    1428+
+           1427    3834    6258    2737
CTETRA      2564       1    7869     218     219     121    1670    3303+
+           1675    1667    1668    1672
CTETRA      2565       1     150    6042    6039     152     995    6257+
+           1429     989     993    1098
CTETRA      2566       1      47    4155    4154    4156    2087    4772+
+           2078    2085    4779    4780
CTETRA      2567       1      46    6117    6121    6124     458    6531+
+            453    2075    6534    6536
CTETRA      2568       1    7701    5304    8175    5305    3799    5385+
+           7708    3321    5390    5391
CTETRA      2569       1      30    6127    6131    6132    1718    6577+
+           1717    1340    6573    6578
CTETRA      2570       1     201    5305    7975    7976    1488    5396+
+           3586    1482    5393    7986
CTETRA      2571       1     221    4155    4156    4152    1738    4779+
+           2086    1710    4775    4777
CTETRA      2572       1    5582    5302    7612    5300     627    5372+
+           5841    3813    5373    5366
CTETRA      2573       1    5581    7612    7613    5300    5840    7624+
+           5839     623    5366    5367
CTETRA      2574       1      34    4146    4155    4153    1728    4773+
+           1737     384    4760    4774
CTETRA      2575       1    3938    7725    4043    3939    3969    4524+
+           3191    3950    3970    2742
CTETRA      2576       1    7639    5403    5511    7640    5438    3497+
+           5899    7649    5439    5900
CTETRA      2577       1     160    4192    4181    4193    1364    4949+
+           2559    1367    4948    4950
CTETRA      2578       1    5590       6    5589    5574    3333     271+
+           5807    5808    3369    5806
CTETRA      2579       1      27    6099    6100    6098     363    6426+
+           1380    1382    6425    6424
CTETRA      2580       1      45    6121    6117    6118     454    6531+
+            459     465    6533    6532
CTETRA      2581       1      45      34    4155      47     462    1737+
+           3835     455    1720    2087
CTETRA      2582       1     166    7966    7916    7967    3137    5045+
+           3140    3499    7995    5046
CTETRA      2583       1    5517      94    5409    5518     704     698+
+           3836    5644    3837    3838
CTETRA      2584       1      31    4157    4158    4148    1463    4788+
+           1278    2672    4787    4786
CTETRA      2585       1      45    4145      47    4155    2084    2080+
+            455    3835    4771    2087
CTETRA      2586       1      45      46    4145    7760     452    2079+
+           2084    1130    3064    4754
CTETRA      2587       1    7008     253      33    7675    2684    3517+
+           2668    7042    3839    2666
CTETRA      2588       1       6    7964    7965    5292     512    7997+
+            513     274    5330    5350
CTETRA      2589       1     100    7778    4063    4067     918    4335+
+            927     923    4348    4349
CTETRA      2590       1      43     147    6036    6044     949     953+
+            952     956    1922    6281
CTETRA      2591       1     135    7776    7777    4053     888    7790+
+            885     884    4296    4297
CTETRA      2592       1     147     152    6037     164     990    1101+
+           1100    1103    1102    1500
CTETRA      2593       1     147    6036    6037    6039     953    6267+
+           1100    1099    6244    6266
CTETRA      2594       1     240     242    6215    6206    2167    2166+
+           2165    2711    3568    6932
CTETRA      2595       1     240    7079    7080    4100    3540    7190+
+           3805    2160    3827    3578
CTETRA      2596       1    7081    7409    7408    6205    7194    7482+
+           7192    3288    6896    6933
CTETRA      2597       1      22    4185    4184    4187     324    4922+
+            354     353    4933    4945
CTETRA      2598       1     100     140     101    7777     922    2802+
+            917     915     886     916
CTETRA      2599       1    7061    7537    7536    4009    7368    7551+
+           7367    3120    4253    4252
CTETRA      2600       1    8183    6150    7679    6071    6653    3784+
+           7681    6652    6650    3757
CTETRA      2601       1    5971    8153    6040    6041    6001    6246+
+           1004    3574    6254    6255
CTETRA      2602       1     197     255    3998    5967    3712    3711+
+           2731    1955    3742    2730
CTETRA      2603       1     187    7106    7433    6145    1282    7267+
+           3840    1289    2782    6626
CTETRA      2604       1     238    5973    6094    6102    3473    3759+
+           3111    2190    3474    6439
CTETRA      2605       1      31    4158    4157    4162    1278    4788+
+           1463    1466    4805    4804
CTETRA      2606       1     187    6145    6144    6142    1289    6629+
+           3355    3431    6628    6624
CTETRA      2607       1    8153    6022    5970    5971    6247     850+
+           6000    6001    3707    5979
CTETRA      2608       1      93    7849    7848    7779     651    7897+
+            633     654    5009    5008
CTETRA      2609       1     253     188    6142    6135    2680    3434+
+           3432    2787    2796    6615
CTETRA      2610       1     151    5972    5967    5966    1957    5985+
+           1956     980    5984    5986
CTETRA      2611       1      29    6140    6131    6139     367    6606+
+           1731     378    6607    6604
CTETRA      2612       1     132    4059    4058    7780    3841    4317+
+           3486     853    4315    4313
CTETRA      2613       1      32    4151    4147    4149    1146    4745+
+           1730    3519    4748    4733
CTETRA      2614       1    4112    3940     171    4105    3505    2102+
+           2109    4556     495    2103
CTETRA      2615       1     171    6186    6184    6182    2094    6794+
+           2202    2205    6793    6785
CTETRA      2616       1     166    7915    7914    7968    3379    7941+
+           2970    3207    5044    5041
CTETRA      2617       1    3994    7669    4179    8179    3668    3842+
+           4907    4237    7671    4906
CTETRA      2618       1      65      87      54     144    1832    3310+
+            526    2597    2648     912
CTETRA      2619       1     215    4119    4118    4122    3403    4605+
+           2521    1615    4618    4616
CTETRA      2620       1     217    6178    6181    6183    1631    6776+
+           2757    2753    6779    6765
CTETRA      2621       1     179    4122    4118    4121    1657    4616+
+           1205    1655    4617    4609
CTETRA      2622       1     215     217    4118    4119    1627    2523+
+           2521    3403    2532    4605
CTETRA      2623       1    7089    7416    6190    7417    7216    6819+
+           3652    7218    7474    6818
CTETRA      2624       1     174    6199    6191    6198    1180    6855+
+           3670    1610    6857    6850
CTETRA      2625       1    7527    4050    7070    7528    4381    3649+
+           7349    7557    4358    7350
CTETRA      2626       1     135    7690    5244    4053    2257    5278+
+           3843     884    2356    2091
CTETRA      2627       1     148     174     215    6197    2445    1609+
+           2811    2813    3069    1629
CTETRA      2628       1    4066    4052    5240    7827    4368    3520+
+           3622    4350    4369    5268
CTETRA      2629       1    5238    6214    6061    8130    3195    6927+
+           3019    5284    6925    6928
CTETRA      2630       1      53    4076    5243    5242    2271    2273+
+           2270    2822    3554    5254
CTETRA      2631       1    7087    7414    6198    7415    7210    6851+
+           1643    7212    7479    6849
CTETRA      2632       1      15    5573    5572    5588     305    5758+
+           2323     306    5803    5802
CTETRA      2633       1     162    4104    4103    4106    3776    4544+
+           3715    1817    4560    4562
CTETRA      2634       1     140    5240    7690    4066    2412    5265+
+           2355    1931    3622    3727
CTETRA      2635       1    6199    5183    6192    8119    3071    2456+
+           6856    6861    5229    6860
CTETRA      2636       1    6171      66      65    6175    2727     529+
+           2725    6866    1841    1842
CTETRA      2637       1     103     104      77    5546     662    3166+
+           3208    3500    3157    2029
CTETRA      2638       1    6035    5235    6058    8133    2902    3844+
+           6340    6341    5264    6338
CTETRA      2639       1    6190     251      70     174    3650    2447+
+           2438    2437    3845    1174
CTETRA      2640       1     145    4066    4065    5240    1930    4345+
+            947    3846    3622    3621
CTETRA      2641       1      37     164    4069    4064    1107    1582+
+           1581     940    1108    4353
CTETRA      2642       1     174    4123    4116    4115    1646    4633+
+           1184    1175    4634    4590
CTETRA      2643       1     173     178    6181     217    2209    1201+
+           2658    2752    2755    2757
CTETRA      2644       1    5582    7612    5302    7611    5841    5372+
+            627    5842    7625    5369
CTETRA      2645       1     177    7957    7958    5290    3387    8004+
+           1999    3384    5307    5306
CTETRA      2646       1    4105     171      61      58    2103    2093+
+           3297     492    2097    2096
CTETRA      2647       1    7505    4026    7092    7506    4643    3746+
+           7305    7578    4641    7306
CTETRA      2648       1     210    7093    6069    6152    1639    2698+
+           1977    1636    1640    6668
CTETRA      2649       1    5585    5295    7609    5290    3563    5321+
+           5847    3562    5322    5323
CTETRA      2650       1    7091    4029    7507    7506    2626    4581+
+           7308    7307    4582    7572
CTETRA      2651       1    5584    7610    5301    5290    5845    5360+
+           3350    3809    5359    5362
CTETRA      2652       1    7091    6169    7418    6066    3620    6741+
+           7222    2629    6743    6742
CTETRA      2653       1     235    6169    6170    6070    3619    6749+
+           2612    1989    6751    6752
CTETRA      2654       1    5584    7609    7610    5290    5846    7622+
+           5845    3809    5323    5359
CTETRA      2655       1     185    6164    6166    6161    1270    6725+
+           3847    3848    6714    6724
CTETRA      2656       1     211     232     230    6146    3565    1902+
+           1885    1907    1897    1908
CTETRA      2657       1     185    7096     189    6166    1302    3030+
+           1310    3847    3626    3822
CTETRA      2658       1     162     163    4106    4103    1078    1818+
+           1817    3715    3713    4562
CTETRA      2659       1    7609    5585    7608    5295    5847    5848+
+           7615    5321    3563    5318
CTETRA      2660       1     174    4126    7088    4116    1647    2855+
+           1185    1184    4625    1186
CTETRA      2661       1     230    4023    4024    4134    1890    4669+
+           1903    1906    4663    4667
CTETRA      2662       1      72    6071    7679    6150    3754    3757+
+           3756    3821    6650    3784
CTETRA      2663       1    5588    5293    5292    7606    3508    5328+
+           3507    5853    5325    5326
CTETRA      2664       1    7963      14    7962    5293    3307    2475+
+           7999    5309    2477    5308
CTETRA      2665       1     211    6154     209    6147    1884    1883+
+           1879    1881    6679    1882
CTETRA      2666       1    7090    7507    4029    4114    7309    4581+
+           2700    2617    4576    4578
CTETRA      2667       1    7813    3998    5967     234    4195    2730+
+           6013    3628    2729    1966
CTETRA      2668       1    5587    7607    5293    7606    5851    5313+
+           1412    5852    7616    5325
CTETRA      2669       1     251    4114    7090    4029    2618    2617+
+           2616    2623    4578    2700
CTETRA      2670       1     191     192    4161    4160    1334    1343+
+           1342    1335    1337    4801
CTETRA      2671       1    4161    7104     191    7493    3640    1355+
+           1342    4803    7281    1790
CTETRA      2672       1      31    6144    6143    6140    3234    6622+
+           1348     370    6621    6618
CTETRA      2673       1    5185    7680    4127    7737    5210    2470+
+           2469    5213    5212    4715
CTETRA      2674       1    4163    7493    4162     191    4814    4815+
+           4813    3790    1790    1465
CTETRA      2675       1      67    4113    4034     173    1829    4569+
+           1830    2662    2663    3301
CTETRA      2676       1     211    4134     232    4135    3566    1905+
+           3565    1915    4676    1910
CTETRA      2677       1     236    4127    4136    4131    2468    4681+
+           2454    2452    4684    4686
CTETRA      2678       1    5590     166    5296    5299    3332    1124+
+           3564    3331    3330    5357
CTETRA      2679       1    6049     129    6029     130     818    3693+
+           6296     831     832    2446
CTETRA      2680       1      41    4073    7070    7071    2046    3648+
+           3467     836    3645    7163
CTETRA      2681       1      39    6059    6228    6060     409    6991+
+           1763     411    6917    6996
CTETRA      2682       1    5239    6026    6214    8129    2193    6923+
+           3005    5282    6233    6924
CTETRA      2683       1     129    6229    6030    6029    1757    6994+
+            813    3693    6992    6297
CTETRA      2684       1    5240      42    5241    4052    3849     439+
+           5246    3520     441     440
CTETRA      2685       1      42    5240    5241    5235    3849    5246+
+            439    3850    5245    5247
CTETRA      2686       1      41    6055    6052    6051     426    6320+
+            833     828    6319    6309
CTETRA      2687       1     128     130    4048     129     826    3567+
+            809     816     832    2043
CTETRA      2688       1    6101     238    7062    7063    2128    2181+
+           2183    3625    3483    7139
CTETRA      2689       1    6227    5237    6061    8131    2277    3570+
+           6987    6985    5286    6984
CTETRA      2690       1    7062    6101    7390    7389    2183    6434+
+           7137    7135    6435    7444
CTETRA      2691       1     129    4047    4077    4048    2044    4498+
+           2282    2043    4387    4500
CTETRA      2692       1     238     243    7062    4001    2179    2182+
+           2181    2140    3610    3611
CTETRA      2693       1    5574       6      17     166    3369    3143+
+           3370    3378    3136    3144
CTETRA      2694       1    7063    7390    6101    6092    7138    6434+
+           3625    3665    6436    6432
CTETRA      2695       1    7062    7536    7535    4003    7366    7547+
+           7365    3115    4221    4220
CTETRA      2696       1     153    4082    4083    7774    1013    4423+
+           2352    1027    4420    4422
CTETRA      2697       1     129    6227    6028    5237    2275    6982+
+           3694    2278    2277    2871
CTETRA      2698       1    8131    5237    6028    6227    5286    2871+
+           6986    6985    2277    6982
CTETRA      2699       1    4057     234    7813    7814    1970    3628+
+           4300    4301    3774    7820
CTETRA      2700       1     153     156    6203    6202    1030    1032+
+           1029    2358    2805    6886
CTETRA      2701       1      32    6126    6118    6119     375    6549+
+            466    1149    6551    6550
CTETRA      2702       1     170    6115    6120    6119    2844    6633+
+           2846    1153    6635    6569
CTETRA      2703       1     197     234    3988    4057    1964    3627+
+           3832    1969    1970    4302
CTETRA      2704       1    4076    4077    4099      53    4461    4499+
+           4494    2271    2283    2825
CTETRA      2705       1      29      32      33    6130     371    1894+
+            377     373     372     376
CTETRA      2706       1    5972    6094    8155    8154    3113    6399+
+           6004    6003    6398    8160
CTETRA      2707       1     190     193    7001    7006    1385    2220+
+           2857    1386    1388    7016
CTETRA      2708       1      47    4145    4154    4155    2080    4766+
+           2078    2087    4771    4772
CTETRA      2709       1      34    6126    6127    6121     461    6553+
+           1719     463    6552    6554
CTETRA      2710       1      29    6139      31    6140     378    3236+
+            368     367    6607     370
CTETRA      2711       1     100    4058     150    4063     929    3487+
+           1928     927    4332     987
CTETRA      2712       1     200    4097    4091    4090    1935    4479+
+           1513    1933    4481    4436
CTETRA      2713       1     107    4088      53    4093     686    2284+
+           1048     684    4463     966
CTETRA      2714       1     243    6111    6102    6101    3662    6477+
+           2189    2180    6476    6438
CTETRA      2715       1     131    5964     223    5969    2687    3851+
+           3798    3452    5974    3852
CTETRA      2716       1    7813    5967    7814     234    6013    6014+
+           7820    3628    1966    3774
CTETRA      2717       1    7520    7077     199    4096    7335    1942+
+           3365    4477    2838    3797
CTETRA      2718       1     174    7088     214    6198    1185    1644+
+           1607    1610    1645    1611
CTETRA      2719       1     148     215     174    4123    2811    1609+
+           2445    1166    1614    1646
CTETRA      2720       1    6054      37    6053    6050     398    1502+
+           6318    6317     396    6313
CTETRA      2721       1      42    5241      44    5236     439     443+
+            442     450    5248    3853
CTETRA      2722       1    7068    6054    7396    7395     399    6316+
+           7155    7153    6315    7441
CTETRA      2723       1      37     164    6045    6050    1107    1498+
+           1497     396    1592    6301
CTETRA      2724       1      74      78      79      75     573     570+
+            574     563    2031    2021
CTETRA      2725       1    7068    7069    7396    6054    7157    7156+
+           7155     399    3854    6316
CTETRA      2726       1    7394    7393    7066    6046    7436    7147+
+           7149    6292    6275    2410
CTETRA      2727       1    7071    7070    7527    4073    7163    7349+
+           7348    3645    3648    4379
CTETRA      2728       1    7069    7070    4050    7528    7160    3649+
+            417    7351    7350    4358
CTETRA      2729       1    4075     128      41     130     807     829+
+           2047    2987     826     830
CTETRA      2730       1    7070    6056    6051    7397    3613    6322+
+           3468    7159    6321    6311
CTETRA      2731       1      44    5236     130      41    3853    2052+
+           2985    2984     451     830
CTETRA      2732       1      37    4070    4071      36     405    4367+
+           1580     397     404    1593
CTETRA      2733       1      87      85    7859      89     596     605+
+            607     602     601    1662
CTETRA      2734       1     249    7870    7757    7871    2430    4964+
+           3247    3257    7875    4965
CTETRA      2735       1      29    4147    4153    4157     392    4761+
+            381     389    4789    4790
CTETRA      2736       1    4148    7008     253      33    2674    2684+
+           2671     391    2668    3517
CTETRA      2737       1     199    6222    6223    6226    1443    6963+
+           1945    1939    6974    6975
CTETRA      2738       1     158    4090    4085    4084    1223    4435+
+           1447    1046    4440    4426
CTETRA      2739       1      79    5530      78    5531    2032    2034+
+            570    2025    5633    2026
CTETRA      2740       1     200    6223    6225    6226    1946    6971+
+           1517    1940    6975    6978
CTETRA      2741       1    7636    5515    5514    5412    5892    5632+
+           5893    5503    3454    1788
CTETRA      2742       1     181    4084    4085    4080    1245    4426+
+           1450    1243    4425    4424
CTETRA      2743       1     158    6209    6213    6208    1435    6904+
+           1434    1232    6903    6902
CTETRA      2744       1     185    6164    6167    6166    1270    6729+
+           1267    3847    6725    6730
CTETRA      2745       1    7096    6165    6166    7423    3033    6723+
+           3626    7237    6721    6732
CTETRA      2746       1      83    7769    7859    7858     583    4989+
+            606     589    4988    7887
CTETRA      2747       1     233    4135    4128    7763    1909    4671+
+           1911    2252    4670    4654
CTETRA      2748       1    6073     233    6074    6146    2263    2265+
+           6377    6659    1901    6658
CTETRA      2749       1      19    7856    7772    7771    1781    4995+
+           3000    3404    4992    7796
CTETRA      2750       1    7103    4161    4159    7494    1345    4800+
+           3375    7283    4802    4792
CTETRA      2751       1    5560      17     166    5575    3277    3144+
+           3272    5766    3376    3377
CTETRA      2752       1     191    6138    6132    6140    1354    6600+
+           1339    1338    6602    6601
CTETRA      2753       1      89      87    7861    7860     602    3438+
+           2336    3284    3439    7885
CTETRA      2754       1     192    4161    4160    4159    1343    4801+
+           1337    3060    4800    4799
CTETRA      2755       1      30    4160    4153    4152    1336    4796+
+            380    1736    4798    4776
CTETRA      2756       1     192    6133    6132    6138    3789    6572+
+           1341    1357    6599    6600
CTETRA      2757       1    6142     187      31    6144    3431    1273+
+           3235    6624    3355    3234
CTETRA      2758       1    5299    5590       6    5589    3331    3333+
+            272     270    5807     271
CTETRA      2759       1     195    5586    5295    7960    1403    3792+
+           3806    1405    1402    5319
CTETRA      2760       1      75    7852    8080    8081    3154    5164+
+           2827    3855    5163    8109
CTETRA      2761       1     186    7099    6163    6156    1795    1796+
+           1794    1803    3661    6709
CTETRA      2762       1     177    7925    7924    7958    3811    7951+
+           2013    1999    5064    5061
CTETRA      2763       1     186    4167    4165    4169    1809    4820+
+           1797    1262    4825    4824
CTETRA      2764       1    4032    7685    3940    8186    2099    3974+
+           3856    4557    7688    3973
CTETRA      2765       1     220    6129    6078    6123    1699    6558+
+           1692    2833    6561    6527
CTETRA      2766       1    4079     180     182    4081    2366    3002+
+           1237    4408    3421    1236
CTETRA      2767       1     149    4109    4120    4036    2529    4597+
+           2525    2524    4567    4595
CTETRA      2768       1    5182    8120    6176    8121    5231    6847+
+            824    5232    8127    6863
CTETRA      2769       1    7080    7079    7518    4100    7190    7331+
+           7330    3578    3827    4502
CTETRA      2770       1      64    6062    7082    6205    1085    3598+
+           2497    2493    6897    2499
CTETRA      2771       1     203    6225    6221    6220    1518    6970+
+           3750    2836    6972    6956
CTETRA      2772       1     107     158    6213     157    1042    1434+
+           1433    1044    1043    1436
CTETRA      2773       1     242    6205    7081    6215    2494    3288+
+           2170    2166    6931    2169
CTETRA      2774       1     158    6221     200    6223    1438    2577+
+           1449    3725    6965    1946
CTETRA      2775       1    7079    4044    7519    7518    3601    4478+
+           7332    7331    4501    7565
CTETRA      2776       1    7077    7405    6225    7078    7182    6980+
+           3635    7184    7183    1519
CTETRA      2777       1     240    7081    4101    7080    2168    2175+
+           2174    3805    7193    3579
CTETRA      2778       1      12      15      20      13     297    2321+
+            319     294     298     318
CTETRA      2779       1    4101    7080    7081    7517    3579    7193+
+           2175    4507    7329    7328
CTETRA      2780       1    7079    6224    6219    7406    1522    6968+
+           3406    7186    6966    6948
CTETRA      2781       1     196    7065    6019    6047    2406    3698+
+           2376    2408    2407    6278
CTETRA      2782       1     237    7064    3986    4000    2143    2145+
+           2142    2154    2156    4204
CTETRA      2783       1     152     198     196    4055    1430    2375+
+           1421    2372    3857    2373
CTETRA      2784       1     152    4061    4056    4055    1105    4327+
+           2740    2372    4329    4312
CTETRA      2785       1     152     198     197    6042    1430    2367+
+           1426     993    1431    1428
CTETRA      2786       1     152    6037    6042    6039    1101    6268+
+            993    1098    6266    6257
CTETRA      2787       1    4071      36    7068     164    1593     401+
+           3593    1579    1590    1591
CTETRA      2788       1    7062    4003    7535    4001    3115    4220+
+           7365    3611    4218    4213
CTETRA      2789       1      42    5240     145    4065    3849    3846+
+            934     945    3621     947
CTETRA      2790       1      43    4064    4068    4065     939    4355+
+            938     944    4341    4371
CTETRA      2791       1      40      41    4051    4050     421    3858+
+           3859     413     422    4378
CTETRA      2792       1      14    7964      12    5292    3860     665+
+            296    3506    5330    3801
CTETRA      2793       1    6057      37    6044    6053     957     955+
+           6328    6330    1502    6314
CTETRA      2794       1      43    4068    4072    4065     938    4374+
+            943     944    4371    4372
CTETRA      2795       1     135    7689     140    6031    1952    2411+
+            882    1950    1953    3243
CTETRA      2796       1    7088    7510    7509    4126    7314    7577+
+           7313    2855    4626    4624
CTETRA      2797       1    5398    5403    5511    7639    5442    3497+
+           3861    5440    5438    5899
CTETRA      2798       1     148     174    6197    6199    2445    3069+
+           2813    2444    1180    6858
CTETRA      2799       1     233     231    4135    7764    1899    1916+
+           1909    2254    2255    4672
CTETRA      2800       1     174     251    4114    7089    3845    2618+
+           1176    1182    2619    2620
CTETRA      2801       1    7090    7089    6190    7417    7220    3652+
+           3651    7219    7218    6818
CTETRA      2802       1    7603    5590    5296    7604    5858    3564+
+           5338    7620    5857    5351
CTETRA      2803       1     110    8078    8079    7854    3459    8107+
+           1782    1765    5160    5159
CTETRA      2804       1    7093    7420    6069    6152    7228    6672+
+           2698    1640    6670    6668
CTETRA      2805       1    6178     215     217    6181    1630    1627+
+           1631    6776    1812    2757
CTETRA      2806       1    7086    7413    6195    7414    7207    6837+
+           1814    7209    7478    6838
CTETRA      2807       1    7086    6193    6195    7413    1654    6839+
+           1814    7207    6833    6837
CTETRA      2808       1    7084    7513    4117    4103    7321    4593+
+           1815    3714    4537    4591
CTETRA      2809       1    7085    6193    7413    7412    3658    6833+
+           7206    7204    6832    7477
CTETRA      2810       1     149     217    4109     225    1924    2530+
+           2529    2082    2754    2820
CTETRA      2811       1      75    7851    7852    8081    3155    7894+
+           3154    3855    5166    5163
CTETRA      2812       1     214    6193    6194    6195    1651    6835+
+           1617    1813    6839    6840
CTETRA      2813       1     174    6198     215    6197    1610    1612+
+           1609    3069    6854    1629
CTETRA      2814       1     148     215    4123     149    2811    1614+
+           1166     960    2812    2533
CTETRA      2815       1      89      50    5510    5403    2338    3862+
+           3863    2341    2343    3498
CTETRA      2816       1    7082    6062    7410    7409    3598    6796+
+           7197    7195    6895    7480
CTETRA      2817       1    7084    6187    6180    7411    1083    6799+
+           3634    7201    6798    6800
CTETRA      2818       1     174    6191    6192    6190    3670    6829+
+           1179    2437    6828    6825
CTETRA      2819       1    5551    5567      21    5552    5741     323+
+            322    5697    5742    3122
CTETRA      2820       1     207      72    4137     212    1984    2720+
+           1566    1561    2059    1565
CTETRA      2821       1    4129     222    4128     244    3864    3803+
+           4650    2390    2377    3865
CTETRA      2822       1     139    8021    7914    8020    2976    5094+
+           2968     881    8047    5097
CTETRA      2823       1     233    6074    8009    6073    2265    6368+
+           3866    2263    6377    6376
CTETRA      2824       1     225    6183    6175    6177    2660    6772+
+           1848    3604    6780    6773
CTETRA      2825       1     149    6176      66    5182     961     822+
+           2081    1689     824     821
CTETRA      2826       1      89    5525      88    5526    3279    3197+
+            603    3282    5613    3283
CTETRA      2827       1      60    6064    3934    6189    3557    3826+
+           2706     508    6813    3296
CTETRA      2828       1     173    4108     217     225    2821    2819+
+           2752    2659    2818    2754
CTETRA      2829       1    4113     225      67    4035    2664    1825+
+           1829    4573    3867    1828
CTETRA      2830       1      68     172      67    7769    1840    1838+
+            537     587    2482    1852
CTETRA      2831       1      67    4034    4035    7768    1830    4269+
+           1828     539    4268    4270
CTETRA      2832       1     127    3994    4007    7669    2583    4238+
+           2580    3573    3668    3721
CTETRA      2833       1       6      18    7917    7918    3328    3276+
+           3274     511    3047    7944
CTETRA      2834       1     124    3995    4005    4006     795    4231+
+           1298    1293    4233    4232
CTETRA      2835       1     184    4169    4166    4168    1264    4826+
+           2761    3510    4831    4830
CTETRA      2836       1     185     189    7096    4173    1310    3030+
+           1302    1301    3029    1303
CTETRA      2837       1     183    6163     186    7098    2861    1794+
+           1263    1304    1793    1792
CTETRA      2838       1     115    8066    8067    7866    1686    8095+
+           3523    3360    5136    5135
CTETRA      2839       1     109    7856    7771    7857    1780    4992+
+           3405    3437    7889    4993
CTETRA      2840       1      56    6158     184      81    3547    3594+
+           3660    2288    3545    1306
CTETRA      2841       1     171    4112    4111    4033    2109    4551+
+           1170    2107    4547    4549
CTETRA      2842       1     171     173    4111     178    1171    1173+
+           1170    2207    2209    2653
CTETRA      2843       1     229      84    7770    7769    2632    2636+
+           2635    2483     584    7786
CTETRA      2844       1    6065     229     171    6173    1961    2106+
+           2201    6786    2488    2657
CTETRA      2845       1     253     188    6135     254    2680    2796+
+           2787    2677    2681    2797
CTETRA      2846       1     218    8065    5402    8066    3868    5434+
+           1681    1684    8094    5433
CTETRA      2847       1    8120    6176    6196     148    6847    6846+
+           6848    3869     958     959
CTETRA      2848       1     189    4171    4173    4018    3035    4848+
+           3029    2114    4841    4847
CTETRA      2849       1       2     115    5522    5537    1682     722+
+           2415    3126    3353    5656
CTETRA      2850       1     222    4128    4024    4025    3803    4648+
+           3804    1748    4647    4649
CTETRA      2851       1    6172    8012      65      54    6762    2598+
+           2726    2596    2594     526
CTETRA      2852       1     109      84      20      86    3341    3342+
+           3187    3409     594    2719
CTETRA      2853       1     211    4135     232     231    1915    1910+
+           3565    1913    1916    1896
CTETRA      2854       1    8155    6103    5973    8180    6441    3675+
+           6005    8161    6449    6006
CTETRA      2855       1     232    4134    4024    4128    1905    4667+
+           1904    1912    4668    4648
CTETRA      2856       1     215    6197    6198    6194    1629    6854+
+           1612    1618    6842    6853
CTETRA      2857       1     162    7083    6187    7084    1087    3298+
+           1081    1080    7202    1083
CTETRA      2858       1     166    5590    5575    5574    3332    5809+
+           3377    3378    5808    5764
CTETRA      2859       1    7643    5401     114    5507    5425    3527+
+           3815    5907    3526     720
CTETRA      2860       1     170    4150    4151    4149    2850    4749+
+           1154    2839    4743    4748
CTETRA      2861       1      32    6119    6130    6126    1149    6568+
+            372     375    6551    6574
CTETRA      2862       1      83      86     228     227     593    2717+
+           1858    1856    2718    1857
CTETRA      2863       1       7    6118    8031    6119    1150    6639+
+           1155    1148    6550    6638
CTETRA      2864       1       7    4151    7758    7759    1147    4751+
+           3201     775    4756    7805
CTETRA      2865       1      64    6188    6062    6063    1095    6802+
+           1085    2492    6804    6803
CTETRA      2866       1     229     239    4032    7770    2631    3870+
+           2630    2635    2634    4275
CTETRA      2867       1     187    7107    4014    7106    1286    1288+
+           1281    1282    7271    1279
CTETRA      2868       1     215     179    4122    4118    1661    1657+
+           1615    2521    1205    4616
CTETRA      2869       1     214    7086    6195    7087    1652    1814+
+           1813    1642    7211    3677
CTETRA      2870       1     174    6191    7088    6198    3670    3672+
+           1185    1610    6850    1645
CTETRA      2871       1       2    7698    5551    5536     257    5833+
+           3121    2875    5830    5696
CTETRA      2872       1      61    6188    6186    6185    1816    6810+
+           2095    1094    6806    6792
CTETRA      2873       1     218    5507    5506    5522    1678    5600+
+           3700    1676    5599    5598
CTETRA      2874       1     214    4125    4126    4122    1659    4627+
+           1648    1616    4621    4631
CTETRA      2875       1    7107    7106    6145    7434    7271    2782+
+           1291    7270    7269    6625
CTETRA      2876       1    7087    7511    7510    4125    7316    7576+
+           7315    1660    4622    4623
CTETRA      2877       1     173     217    4108    4107    2752    2819+
+           2821    2654    2756    4571
CTETRA      2878       1     214    4126    4123    4122    1648    4632+
+           1613    1616    4631    4619
CTETRA      2879       1     214    4122    4121    4125    1616    4617+
+           1656    1659    4621    4620
CTETRA      2880       1      29    6139    6131    6130     378    6604+
+           1731     373    6603    6575
CTETRA      2881       1    7432    7105     187    6143    7264    1274+
+           3356    6620    1351    3629
CTETRA      2882       1    7634    5516    7635    5405    5889    5890+
+           7659    5474    2198    5496
CTETRA      2883       1    7602    5592    7601    5298    5861    5862+
+           7619    5343    2910    5346
CTETRA      2884       1     253    6142    6139    6137    3432    6613+
+           3814    3871    6612    6605
CTETRA      2885       1     151    6041    6021    5972    2738    6252+
+           3834    1957    3674    3673
CTETRA      2886       1    7079    7518    4100    4044    7331    4502+
+           3827    3601    4501    4504
CTETRA      2887       1      64    7083    7082    6062    1088    7199+
+           2497    1085    1089    3598
CTETRA      2888       1     112    7755    4189    8190    1394    4923+
+           1326    1331    7809    4924
CTETRA      2889       1      86    5556     228    5557    3198    3748+
+           2717    3440    5712    2316
CTETRA      2890       1     209    4023    4018    4019    1889    4726+
+           2115    2382    4730    4731
CTETRA      2891       1     250    5406    5407    8088    3872    5465+
+           3873    3642    5466    5462
CTETRA      2892       1    5534      26    5533    5518    3052    3874+
+           5645    5646     341    5643
CTETRA      2893       1      86    5526      88    5541    3287    3283+
+           2776    2773    5668    2775
CTETRA      2894       1    6050     164    7067    7068    1592    2413+
+           3735     400    1591    7154
CTETRA      2895       1    7069    7396    6054    6056    7156    6316+
+           3854    3614    6323    6324
CTETRA      2896       1      40    6055    6054    6053     424    6326+
+            428    1501    6327    6318
CTETRA      2897       1      61     178    4110    4106    1209    2816+
+           2815    1819    1878    4561
CTETRA      2898       1     162    6187    6062    6188    1081    6797+
+           1086    1096    6805    6802
CTETRA      2899       1    5512    7638    5411    5398    5897    5489+
+           3398    3875    5441    5488
CTETRA      2900       1       4    7976    7977    5305    1481    7985+
+           3322    1489    5393    5392
CTETRA      2901       1      54    6172      66      65    2596    3632+
+            530     526    2726     529
CTETRA      2902       1    4039     242    4041    4042    2241    2489+
+           4533    4528    2172    4509
CTETRA      2903       1      57    3935    3934    3940    3294    3957+
+           3295     494    3956    3955
CTETRA      2904       1      64    4038    4039    4041    2501    4534+
+           2243    2490    4531    4533
CTETRA      2905       1    7859      89    7860      87    1662    3284+
+           7886     607     602    3439
CTETRA      2906       1      43      37      40    4068     937     427+
+            941     938     403     415
CTETRA      2907       1     207    6149      72     212    3761    2724+
+           1984    1561    3762    2059
CTETRA      2908       1     147     152    4061    4062     990    1105+
+           1104     985     991    4328
CTETRA      2909       1      46    5917    6023    5918    3588    3876+
+           2892    3589    5932    3829
CTETRA      2910       1     164    6045    6046    6048    1498    6288+
+           1588    1587    6287    6286
CTETRA      2911       1     237     197    3999    3987    2176    3877+
+           2137    3878    2368    4200
CTETRA      2912       1      36    7068    6054    7069     401     399+
+            395     416    7157    3854
CTETRA      2913       1    5594    5595    7599    5303    5822    5867+
+           5866    3819    1493    5378
CTETRA      2914       1    7068    7529      36    4071    7353     419+
+            401    3593    4366    1593
CTETRA      2915       1    5595    5305    8175    7599    1495    5391+
+           5868    5867    5394    7629
CTETRA      2916       1      45      34    4146    4155     462    1728+
+           1893    3835    1737    4773
CTETRA      2917       1    5412    5515    5405    7635    3454    3879+
+           5500    5501    5891    5496
CTETRA      2918       1     250    5397    8191    5407    3542    5460+
+           2434    3873    5459    5461
CTETRA      2919       1      94    7847    8086    7846     688    5173+
+            697     679    7899    5176
CTETRA      2920       1      45    7759    7760    4145     774    7806+
+           1130    2084    4758    4754
CTETRA      2921       1     198     196    7065    6019    2375    2406+
+           3791    2136    2376    3698
CTETRA      2922       1     197    3988     234    3998    3832    3627+
+           1964    2731    4197    2729
CTETRA      2923       1      46    3989    5913    4154    3481    3880+
+           3686    2077    4765    3688
CTETRA      2924       1      29      34    4153    4147     382     384+
+            381     392    1729    4761
CTETRA      2925       1     192    6132    6128    6127    1341    6571+
+           1712    1733    6573    6556
CTETRA      2926       1      23      25      24    6085     334    3751+
+            329    2518     359    1362
CTETRA      2927       1     247    5397     250    5520    3541    3542+
+           2433    3769    3679    3881
CTETRA      2928       1    5560    5544      17    5559    5722    3162+
+           3277    5721    5720    3045
CTETRA      2929       1     217    6178    6183    6177    1631    6779+
+           2753    1926    6781    6780
CTETRA      2930       1     214    6194    6198    6195    1617    6853+
+           1611    1813    6840    6852
CTETRA      2931       1     185    4019     189    4173    1311    1313+
+           1310    1301    4849    3029
CTETRA      2932       1     243    6112    6102    6111    3739    6480+
+           2189    3662    6481    6477
CTETRA      2933       1    5519     250      26    5406    3882    3048+
+            340     337    3872     339
CTETRA      2934       1     190    7755    4178    4189    1392    4889+
+           1383    1328    4923    4925
CTETRA      2935       1     189    6166    7096    6165    3822    3626+
+           3030    3032    6723    3033
CTETRA      2936       1    7096    7502    7501    4171    7298    7589+
+           7297    3536    4838    4839
CTETRA      2937       1      81    4020    4019    4172     578    4729+
+           1312    1314    4845    4846
CTETRA      2938       1    7062    7389    6111    6101    7135    6474+
+           3663    2183    6435    6476
CTETRA      2939       1     237    6092    7064    7063    3624    3623+
+           2143    2153    3665    7142
CTETRA      2940       1     237    3987     198     197    3878    2369+
+           2135    2176    2368    2367
CTETRA      2941       1      19     109     239      20     692    3339+
+           3391    3883    3187    3340
CTETRA      2942       1    7685    7684    3936    3991    7687    3962+
+           3961    2101    3884    3615
CTETRA      2943       1     157    6202    8018    6201    1441    6875+
+           2357    2360    6874    6873
CTETRA      2944       1      97      38      98    5548     638     642+
+            641    3462    3885    3463
CTETRA      2945       1     182    4081    3991    7772    1236    4410+
+           3418    1238    4407    4409
CTETRA      2946       1     237    4001    4000    3999    2139    4210+
+           2154    2137    4211    4208
CTETRA      2947       1      25    6085    6082    6086     359    6514+
+           3428    3501    6419    6508
CTETRA      2948       1     124    6111     243    7061    3683    3662+
+           3345    3238    3664    3117
CTETRA      2949       1    7061    4009    7536    4003    3120    4252+
+           7367    3118    4250    4221
CTETRA      2950       1     204    4046    4085    4045    2570    4416+
+           2564    1504    4418    4417
CTETRA      2951       1    7060    6111    7388    7387    3682    6475+
+           7131    7129    6482    7449
CTETRA      2952       1     243    4008    4009    4003    2585    4251+
+           3119    3116    4247    4250
CTETRA      2953       1     182    3931    6024    7684    3415    3417+
+           3414    2148    3958    3886
CTETRA      2954       1      59     241     242    4042    2703    2171+
+           2239    2744    2162    2172
CTETRA      2955       1     213    6109    6106    6104    1569    6468+
+           1571    1754    6467    6462
CTETRA      2956       1      85    5511    5527    5512    3887    5618+
+           3286    3399    5620    5619
CTETRA      2957       1     228    5557    5556    5572    2316    5712+
+           3748    2322    5757    5756
CTETRA      2958       1       4    7906      11    7905    1484    1485+
+            287    3306    7932    2517
CTETRA      2959       1    3991    7771    7685    7684    4278    2100+
+           2101    3884    2152    7687
CTETRA      2960       1     174    4116    7089    4114    1184    1183+
+           1182    1176    4589    2620
CTETRA      2961       1    7088    7415    6198    6191    7213    6849+
+           1645    3672    6827    6850
CTETRA      2962       1    6158    5915      56    5914    3546     490+
+           3547    3685    5920     489
CTETRA      2963       1     182    6024    8016    7684    3414    6358+
+           3445    2148    3886    2640
CTETRA      2964       1    5522     113    5538     115     723     736+
+           5658     722     718     761
CTETRA      2965       1     110    8077    7855    7856    1774    5158+
+           3185    1779    5155    7890
CTETRA      2966       1     233     244     232    6073    2260    2381+
+           1900    2263    2264    3009
CTETRA      2967       1     109    5513    5512    5528    3400    5624+
+           3397    3189    5623    5622
CTETRA      2968       1    6033     140    6034    8022    1919    3242+
+           6239    6350    1918    6349
CTETRA      2969       1      16    5528      20    5543    3188    3190+
+            320    3135    5674    3458
CTETRA      2970       1    8119    5183    6068    5184    5229    2439+
+           6754    5228    5206    2440
CTETRA      2971       1      50    5510    5404    5509    3862    3888+
+           3889    3075    5612    3890
CTETRA      2972       1    7973    7909    7910    5593    5031    7936+
+           5034    3781    3891    3780
CTETRA      2973       1    7779     146     100    4058     932     931+
+            930    4314    3892     929
CTETRA      2974       1     146    6033    6032    8023    3241    6243+
+           1000    3442    6348    6347
CTETRA      2975       1     165     167     103    5577    1115    2925+
+           1109    3893    3273    2961
CTETRA      2976       1    6125    8144      63    6124    6548    3696+
+            518    6545    6530    3479
CTETRA      2977       1    7094    6160    7422    7421    2780    6701+
+           7233    7231    6700    7465
CTETRA      2978       1      81    6153    6159    6161    2236    6688+
+           2291    2119    6704    6706
CTETRA      2979       1     189    6160    6165    7095    2124    6718+
+           3032    3031    2781    3034
CTETRA      2980       1    6161     230     209      81    2121    1886+
+           2118    2119    2234    2117
CTETRA      2981       1     232    4024     230     222    1904    1903+
+           1902    2380    3804    3894
CTETRA      2982       1    4024      81     222    4025    2237    1747+
+           3804    4649     579    1748
CTETRA      2983       1     189    4022    4017    4018    2116    4723+
+           2722    2114    4725    4727
CTETRA      2984       1     209    6155    6154    6162    1982    6680+
+           1883    2122    6702    6707
CTETRA      2985       1    7422    6165    6160    7095    6720    6718+
+           6701    7234    3034    2781
CTETRA      2986       1      76    5412    8080    8079    1785    5498+
+           2828    1783    5499    8108
CTETRA      2987       1     167    5577    5592    5593    3273    5815+
+           1116    2912    5817    5816
CTETRA      2988       1     135    5244    7690    5239    3843    5278+
+           2257    2192    5260    5280
CTETRA      2989       1     138    5239     156    5244    3374    3006+
+           1031    3382    5260    3193
CTETRA      2990       1    7630    5520    5407    5397    5881    3895+
+           5457    5414    3679    5459
CTETRA      2991       1     145    4067    4063    4065     926    4349+
+            928     947    4344    4342
CTETRA      2992       1     140    6034    8022    6031    3242    6349+
+           1918    3243    6344    6231
CTETRA      2993       1     110    5412    8079    5410    1784    5499+
+           1782    1775    5504    5505
CTETRA      2994       1     145    5240     140    4066    3846    2412+
+           1929    1930    3622    1931
CTETRA      2995       1     135    7776    4053    5244     888    4296+
+            884    3843    3585    2091
CTETRA      2996       1      47    4142    4156    4154    2071    4781+
+           2085    2078    4770    4780
CTETRA      2997       1      33    6119    6120    6130    1895    6569+
+           2845     376    6568    6570
CTETRA      2998       1    5591    5576    5592     165    5812    5814+
+           5813    1126    1121    1117
CTETRA      2999       1     253    6136    6142    6137    2788    6614+
+           3432    3871    6593    6612
CTETRA      3000       1     174    6192    6191    6199    1179    6829+
+           3670    1180    6856    6855
CTETRA      3001       1     215    4122    4123    4119    1615    4619+
+           1614    3403    4618    4615
CTETRA      3002       1    6036     145    6033    6039     954    1920+
+           6238    6244    1496    6241
CTETRA      3003       1      93     100    8022     101     647     644+
+            648     649     917    2803
CTETRA      3004       1     127    6103    5973    6102    1743    3675+
+           3475    3114    6442    3474
CTETRA      3005       1     220     192     221    4152    1711    1714+
+           1707    1709    1789    1710
CTETRA      3006       1     203    6221     204    6220    3750    2566+
+           1503    2836    6956    3796
CTETRA      3007       1     180    4080    4081    4079    1244    4413+
+           3421    2366    4414    4408
CTETRA      3008       1     106      26    7846      38    2950    3494+
+            676     673     407     675
CTETRA      3009       1     203     200    6221    6225    1510    2577+
+           3750    1518    1517    6970
CTETRA      3010       1      30    4157    4160    4162     388    4797+
+           1336    1464    4804    4806
CTETRA      3011       1    7685    4032    3991    8186    2099    4279+
+           2101    7688    4557    4535
CTETRA      3012       1     191    6138    6140    6143    1354    6602+
+           1338    1347    6617    6618
CTETRA      3013       1      30      34    6127     221     383    1719+
+           1718    1732    1723    1734
CTETRA      3014       1    7080    4100    7518    7517    3578    4502+
+           7330    7329    4503    7566
CTETRA      3015       1    7723    3936    4080    7722    3965    1861+
+           4404    7728    3964    4415
CTETRA      3016       1     203    4091    4096    4044    1508    4475+
+           1512    2837    4438    4474
CTETRA      3017       1    7917    7918    7965       6    7944    5050+
+           5047    3274     511     513
CTETRA      3018       1     204     181    4046    3937    2567    2571+
+           2570    3532    3555    3072
CTETRA      3019       1    5589    5299    5590    7604     270    3331+
+           5807    5856    5356    5857
CTETRA      3020       1    7685    8186    3991    7722    7688    4535+
+           2101    3963    7727    4412
CTETRA      3021       1     240    7080    6219    6215    3805    3407+
+           3538    2165    3599    6945
CTETRA      3022       1    7072    7399    6049    6030    7165    6293+
+           3647     810    6298    6295
CTETRA      3023       1     240    4102    4101    4042    2157    4517+
+           2174    2161    4520    4510
CTETRA      3024       1     200    4096    4091    4097    1511    4475+
+           1513    1935    4480    4479
CTETRA      3025       1      50    5403    5404    5510    2343    5454+
+           3889    3862    3498    3888
CTETRA      3026       1      91    5302    8194    7955     625    5371+
+            609    1188    5370    8007
CTETRA      3027       1     199    7077    7521    7076    1942    7336+
+           3364    1949    7181    7337
CTETRA      3028       1     204     181    3937    3932    2567    3555+
+           3532    3531    3825    3944
CTETRA      3029       1      59    4040    4039    4104     498    4529+
+           2240     503    4545    4543
CTETRA      3030       1     114    8069    7864    8068    3266    5139+
+           3352    3896    8097    5140
CTETRA      3031       1    7081    4101    7516    4041    2175    4506+
+           7327    3733    4508    4511
CTETRA      3032       1    7637    5513    5411    5410    5895    1778+
+           5492    5486    1777    5493
CTETRA      3033       1    6226    7077    7405    6225    1943    7182+
+           6979    6978    3635    6980
CTETRA      3034       1    7078    7520    7519    4096    7334    7561+
+           7333    1515    4477    4476
CTETRA      3035       1    7078    6225    6224    7405    1519    6973+
+           1523    7183    6980    6967
CTETRA      3036       1    3990    5185    4127    7737    1530    2469+
+           4716    4646    5213    4715
CTETRA      3037       1      50    5399    5509    5404    3264    3772+
+           3075    3889    5450    3890
CTETRA      3038       1     203    7078    4044    4096    1514    3600+
+           2837    1512    1515    4474
CTETRA      3039       1    8118    6071    5184    6168    6739    3755+
+           5227    6737    6740    2941
CTETRA      3040       1      36    7069      41    4050     416    3612+
+            420     412     417     422
CTETRA      3041       1      42    6055    6057    6058     432    6331+
+            431     438    6336    6337
CTETRA      3042       1      36    6056      41    7069    3897     425+
+            420     416    3614    3612
CTETRA      3043       1     223    6103    6091    7670    1750    6447+
+           3898    3899    1742    3833
CTETRA      3044       1      31    4163    4158    4162    1272    4809+
+           1278    1466    4813    4805
CTETRA      3045       1      20    5527    5543    5528    3410    5673+
+           3458    3190    5621    5674
CTETRA      3046       1     240    4100    4101    4102    2160    4516+
+           2174    2157    4515    4517
CTETRA      3047       1      91    7955    5301    5302    1188    5365+
+           1191     625    5370    5368
CTETRA      3048       1      43    6036    6043    6044     952    6280+
+            434     956    6281    6283
CTETRA      3049       1     145     140    6035    6034    1929    3004+
+            935    3441    3242    6271
CTETRA      3050       1    3991    7684    3936    3931    3884    3962+
+           3615    3419    3958    3941
CTETRA      3051       1      59    4040    3939    4043     498     502+
+            501    2741    4525    2742
CTETRA      3052       1      42    4052    5240    4065     441    3520+
+           3849     945    4370    3621
CTETRA      3053       1      37    4068    4069    4070     403    4354+
+           1581     405    4359    4360
CTETRA      3054       1     126     223    7669    7670    1749    3667+
+           3572    1739    3899    7672
CTETRA      3055       1    5532    5517      38      95    5639     701+
+           3213    2195     703     702
CTETRA      3056       1     250    8191    8189    8088    2434    7695+
+           3110    3642    8117    5179
CTETRA      3057       1      37    6044    6053    6045     955    6314+
+           1502    1497    6291    6312
CTETRA      3058       1      43    6044    6043    6057     956    6283+
+            434     436    6328    6329
CTETRA      3059       1      50    5404    5403    8071    3889    5454+
+           2343    2340    5449    5455
CTETRA      3060       1     223    5969    7669    7670    3852    5995+
+           3667    3899    5994    7672
CTETRA      3061       1      33    8166    6137    6120    3239    6591+
+           3691    2845    6594    6586
CTETRA      3062       1     121       8    7869    7758    1673    1674+
+           1667    3203    3202    4966
CTETRA      3063       1     150     146     132    4058     999    1001+
+            998    3487    3892    3486
CTETRA      3064       1     191    7103    7104    4161    1344    7262+
+           1355    1342    1345    3640
CTETRA      3065       1     223    5969    7670    6091    3852    5994+
+           3899    3898    3740    3833
CTETRA      3066       1      32    4146    4147    4151    1727    4747+
+           1730    1146    4746    4745
CTETRA      3067       1    8151    6091    7670    5969    6491    3833+
+           5996    5997    3740    5994
CTETRA      3068       1     247    5400    8062    5397    2418    5418+
+           2417    3541    5417    5420
CTETRA      3069       1    7697     219       2    7698    2869    3305+
+           2874    7704    2870     257
CTETRA      3070       1    7104    7431    6143    7432    7261    6619+
+           1353    7263    7459    6620
CTETRA      3071       1     219    7696    5506    5400    2872    5825+
+           2879    3766    3900    3595
CTETRA      3072       1    7431    6138    7104    6143    6598    1352+
+           7261    6619    6617    1353
CTETRA      3073       1     118    5562    5578    5563     750    5774+
+            754     748    5730    5775
CTETRA      3074       1     187    7105    7106    4163    1274    7268+
+           1282    1271    1275    1280
CTETRA      3075       1      44    4051      40      41    2990    3859+
+           2971    2984    3858     421
CTETRA      3076       1     198    6019    6020    6038    2136    6264+
+           2134    1432    6263    6262
CTETRA      3077       1    7632    5406    5519    5518    5464     337+
+           5884    5885     338    5648
CTETRA      3078       1      36    4068    4070    4050     402    4359+
+            404     412    4361    4356
CTETRA      3079       1     164    6050    7067    6046    1592    3735+
+           2413    1588    6300    2414
CTETRA      3080       1     164    4060    4071    4069    1585    4364+
+           1579    1582    4352    4365
CTETRA      3081       1     196    6038    6048    6047    1422    6285+
+           1425    2408    6279    6284
CTETRA      3082       1      43     147    6044      37     949    1922+
+            956     937     950     955
CTETRA      3083       1      75    8082    7851    8081    3180    5165+
+           3155    3855    8110    5166
CTETRA      3084       1     165    7914    7969    7968    2967    5042+
+           2974    1129    5041    7993
CTETRA      3085       1      76      78    5530    5545    2829    2034+
+           3401    3161    3168    5680
CTETRA      3086       1     164     196    7067    4060    1583    2403+
+           2413    1585    1584    2405
CTETRA      3087       1     208    4022    4138    4021    1548    4688+
+           1635    1634    4690    4689
CTETRA      3088       1    7096    7095    6165    7423    7238    3034+
+           3033    7237    7236    6721
CTETRA      3089       1    7094    7421    6152    6160    7231    6671+
+           3738    2780    6700    6698
CTETRA      3090       1      16     108     110      76     689    1768+
+            694    3443    1770    1767
CTETRA      3091       1     189    7095    7096    4171    3031    7238+
+           3030    3035    3592    3536
CTETRA      3092       1    7096    7501    4173    4171    7297    4857+
+           1303    3536    4839    4848
CTETRA      3093       1      84    7858     109    7770     590    3412+
+           3341    2636    4991    3460
CTETRA      3094       1    4171    7095    7502    4017    3592    7299+
+           4838    4840     758    4823
CTETRA      3095       1      69    4028    4027    4141    2943    4640+
+            549     548    4708    4709
CTETRA      3096       1     240    6206    6215    6216    2711    6932+
+           2165    2712    6939    6940
CTETRA      3097       1     109    5527    5528    5512    3408    5621+
+           3189    3397    5619    5622
CTETRA      3098       1     202     119     252     201    1474    2546+
+           2551    1473    1472    2549
CTETRA      3099       1     233     232    6146    6073    1900    1897+
+           1901    2263    3009    6659
CTETRA      3100       1    6072     222     244    6153    2800    2377+
+           2400    6678    2292    2378
CTETRA      3101       1     240    7080    7079    6219    3805    7190+
+           3540    3538    3407    3406
CTETRA      3102       1    6102    6103    5973    8155    6442    3675+
+           3474    6440    6441    6005
CTETRA      3103       1     131    5969    6091    6114    3452    3740+
+           2692    2691    3590    6496
CTETRA      3104       1     152    6048    6038    6037    1424    6285+
+           1423    1101    6289    6269
CTETRA      3105       1     133    7755    8189    7872    2947    4961+
+           3109    3106    4960    7873
CTETRA      3106       1       7     121       8       2     779    1673+
+            277     763    1142     764
CTETRA      3107       1     152     198    4055    4056    1430    3857+
+           2372    2740    2370    4312
CTETRA      3108       1    4055     198     196    3986    3857    2375+
+           2373    4309    2141    2734
CTETRA      3109       1    7701    7613    8175    5304    5838    7628+
+           7708    3799    5384    5385
CTETRA      3110       1    5298    5592    7601    5593    2910    5862+
+           5346    2913    5816    5863
CTETRA      3111       1     237    4000    3987    3999    2154    4207+
+           3878    2137    4208    4200
CTETRA      3112       1    4071    7067    7068    7530    3810    7154+
+           3593    4363    7355    7354
CTETRA      3113       1     237    3986     198    3987    2142    2141+
+           2135    3878    4209    2369
CTETRA      3114       1     203    4100     240     204    1506    2160+
+           3539    1503    1507    2159
CTETRA      3115       1    7064    4000    7534    7533    2156    4214+
+           7362    7361    4205    7546
CTETRA      3116       1     149    4120    4119    4123    2525    4602+
+           2531    2533    4613    4615
CTETRA      3117       1    4069      37    4070    4071    1581     405+
+           4360    4365    1580    4367
CTETRA      3118       1    4057    4062    4056     151    4321    4326+
+           4305    1420    1419    2739
CTETRA      3119       1     128    7525    4074    7526    2050    4384+
+            808    3646    7558    4385
CTETRA      3120       1     204    6217    3932    3933    2573    3788+
+           3531    3552    3070    3949
CTETRA      3121       1    4120    7735    4124    5187    4596    4610+
+           4612    2528    5217    1844
CTETRA      3122       1     225    4109    4036    4035    2820    4567+
+           2854    3867    4566    4283
CTETRA      3123       1      67    6175    8013      65    1843    6869+
+            533     534    1842     532
CTETRA      3124       1      42      41    5236      44     447     451+
+            450     442    2984    3853
CTETRA      3125       1      41    4050    4073    4051     422    4382+
+           2046    3858    4378    4383
CTETRA      3126       1      36    7069    6054    6056     416    3854+
+            395    3897    3614    6324
CTETRA      3127       1     225    4109    4035    4108    2820    4566+
+           3867    2818    4575    4574
CTETRA      3128       1    7000    7005      25      27    7012    3722+
+           2978    2979     350     364
CTETRA      3129       1    7004      22      25    7005     342     333+
+           3066    7010     348    3722
CTETRA      3130       1      72    6071    6070    6168    3754    6645+
+           2723    2749    6740    6753
CTETRA      3131       1     180    6208    6201    6200    1230    6900+
+           2363    1227    6901    6878
CTETRA      3132       1     152    6038    6042    6037    1423    6265+
+            993    1101    6269    6268
CTETRA      3133       1    4063    4058     150    4062    4332    3487+
+            987    4333    4322     986
CTETRA      3134       1     196    4054    4060    4061    2735    4325+
+           1584    1586    4330    4331
CTETRA      3135       1     229     239    7684    7685    2631    2149+
+           1959    3597    3901    7687
CTETRA      3136       1     164    4069    4061    4060    1582    4351+
+           1106    1585    4352    4331
CTETRA      3137       1     252    8026     134    7909    3175    3225+
+           2550    2544    5084    2553
CTETRA      3138       1    4058     146     100     150    3892     931+
+            929    3487     999    1928
CTETRA      3139       1     190    6098    6100    6088    1316    6424+
+           1381    3902    6404    6421
CTETRA      3140       1     223    6090    6091    6104    2347    6446+
+           3898    1752    6443    6445
CTETRA      3141       1     112    4194    8190    4189     712    4956+
+           1331    1326    4955    4924
CTETRA      3142       1     148    6199    8119    5183    2444    6861+
+           3068    1070    3071    5229
CTETRA      3143       1     112    6098    6088    6089    1317    6404+
+           3903    1325    6403    6405
CTETRA      3144       1     214    4121     179    7086    1656    1655+
+           1649    1652    1822    1653
CTETRA      3145       1     131    4179     223    5964    2686    3732+
+           3798    2687    2689    3851
CTETRA      3146       1    8118    7679    6071    8183    5226    3757+
+           6739    8124    7681    6652
CTETRA      3147       1    5189    7733    4031    4028    5221    4635+
+           2942    2944    4637    4636
CTETRA      3148       1      90    5300    5582    5581     620    3813+
+            626     621     623    5783
CTETRA      3149       1     148    6196    6199    6197     959    6859+
+           2444    2813    6845    6858
CTETRA      3150       1      21    5568    5552    5567    2298    5744+
+           3122     323    5743    5742
CTETRA      3151       1      23     254      25    6134    2786    2938+
+            334    3775    2794    3429
CTETRA      3152       1      22      23      25      24     326     334+
+            333     327     329    3751
CTETRA      3153       1    5186    4036    5187    7735    3904    2527+
+           5195    5216    4281    5217
CTETRA      3154       1     174    4116    4123    4126    1184    4633+
+           1646    1647    4625    4632
CTETRA      3155       1      90    5582    5567    5566     626    5785+
+           3299    2306    5784    5740
CTETRA      3156       1      45      46     122    8032     452    3065+
+            773    3205    3204    1159
CTETRA      3157       1      46    3989    4154    4145    3481    4765+
+           2077    2079    4755    4766
CTETRA      3158       1    6192    5183    6068    8119    2456    2439+
+           6824    6860    5229    6754
CTETRA      3159       1      33    4148    4149    4147     391    4732+
+           2840     393    4734    4733
CTETRA      3160       1    7090    7417    6190    6066    7219    6818+
+           3651    2701    6822    6820
CTETRA      3161       1     152    4062    4056    4061     991    4326+
+           2740    1105    4328    4327
CTETRA      3162       1     147    6044    6037    6036    1922    6282+
+           1100     953    6281    6267
CTETRA      3163       1      40    6055    6053    6057     424    6327+
+           1501     430    6331    6330
CTETRA      3164       1     148    4120    4124    5187    2534    4612+
+           1167    1283    2528    1844
CTETRA      3165       1      37      40    6057      43     427     430+
+            957     937     941     436
CTETRA      3166       1     164    6037    6045    6048    1500    6290+
+           1498    1587    6289    6287
CTETRA      3167       1      41    7070    4073    4050    3467    3648+
+           2046     422    3649    4382
CTETRA      3168       1      70    4031    4115    4030     542    4586+
+           1164     545    4585    4583
CTETRA      3169       1    5184    8118    6068    8119    5227    6738+
+           2440    5228    8125    6754
CTETRA      3170       1      36      37    6050     164     397     396+
+            394    1590    1107    1592
CTETRA      3171       1      90    5581    5582    5566     621    5783+
+            626    2306    5782    5784
CTETRA      3172       1       1       2       8       3     258     764+
+            276     259     261     282
CTETRA      3173       1     236    5185    7679    7680    2460    5211+
+           2068    2065    5210    7682
CTETRA      3174       1      42      43    4072    4065     433     943+
+            445     945     944    4372
CTETRA      3175       1     110    5411    5410    8077    1772    5493+
+           1775    1774    5494    5495
CTETRA      3176       1     164    4069    4064    4061    1582    4353+
+           1108    1106    4351    4339
CTETRA      3177       1     147    4061     164    4064    1104    1106+
+           1103     948    4339    1108
CTETRA      3178       1    6150     236     212      55    3816    2066+
+           2695    2610    2457    2603
CTETRA      3179       1    5240     145    5235      42    3846    3823+
+           5245    3849     934    3850
CTETRA      3180       1      94      38    8087    5406     678    3496+
+           3905     699     406    5467
CTETRA      3181       1      76    5515    5514    5530    3402    5632+
+           1787    3401    5631    5630
CTETRA      3182       1     186    6156    6163    6157    1803    6709+
+           1794    1266    6690    6710
CTETRA      3183       1      95    5516    5517    5408    2023    5640+
+            703    2199    2200    3906
CTETRA      3184       1      26    5519    5518    5534     340    5648+
+            341    3052    5647    5646
CTETRA      3185       1     165    5576     166    5591    1121    1123+
+           1112    1126    5812    1127
CTETRA      3186       1     250    8191    7872    8189    2434    5124+
+           2436    3110    7695    7873
CTETRA      3187       1     186     224    6079    6157    1800    1877+
+           1876    1266    2767    6689
CTETRA      3188       1     153     107    6202     157    3907    1440+
+           2358    1034    1044    1441
CTETRA      3189       1     107    6202    6213    6212    1440    6906+
+           1433    2807    6907    6909
CTETRA      3190       1     157    6201    6213    6202    2360    6905+
+           1436    1441    6874    6906
CTETRA      3191       1     180    4079     157    4084    2366    1246+
+           1234    1242    4433    1047
CTETRA      3192       1    5971    6022    5970     132    3707     850+
+           5979    1967     849     845
CTETRA      3193       1     197    3998    3999    3988    2731    4202+
+           3877    3832    4197    4199
CTETRA      3194       1     127    5968     255    5973    2581    3743+
+           3763    3475    5989    3741
CTETRA      3195       1     237    6020    6092    6093    2132    6395+
+           3624    2130    6397    6396
CTETRA      3196       1     150    4057    4062    4058    1418    4321+
+            986    3487    4320    4322
CTETRA      3197       1     237    6093    6092    6101    2130    6396+
+           3624    2127    6433    6432
CTETRA      3198       1     149    5182      66    5187    1689     821+
+           2081    2526    5197    1598
CTETRA      3199       1     109      84      86      85    3341     594+
+           3409    3396     591     595
CTETRA      3200       1     128    6030    7072    6049     819     810+
+           1755     817    6295    3647
CTETRA      3201       1      68     226    8013    8014    1849    1850+
+            536    1839    2937    8054
CTETRA      3202       1      83      68      84     227     586     588+
+            585    1856    2936    3343
CTETRA      3203       1     109    8075    5411    8076    3411    5490+
+           1771    3908    8104    5491
CTETRA      3204       1      14    5588      15    5293     700     306+
+            299    2477    3508    1409
CTETRA      3205       1      13      18     182      19     316    2995+
+           3036     314     317    3184
CTETRA      3206       1     130    5236    5237    6028    2052    5253+
+           2930    2053    2054    2871
CTETRA      3207       1      35    4094    7075    4098     969     968+
+            967    3699    4483    3659
CTETRA      3208       1      35     199    6222    6210    1444    1443+
+           1442     387    1938    6960
CTETRA      3209       1     127    5973    7670    5968    3475    6007+
+           1740    2581    5989    6009
CTETRA      3210       1     223    4180    3994    4179    2556    4910+
+           3368    3732    4911    4907
CTETRA      3211       1      16     110     109    5528     694     696+
+            693    3188    3327    3189
CTETRA      3212       1     110    5529    5514    5513    3326    5627+
+           1786    1776    5626    5628
CTETRA      3213       1    7605    5299    5589    7604    5353     270+
+           5855    7621    5356    5856
CTETRA      3214       1    3994    7669    8179    4007    3668    7671+
+           4237    4238    3721    4235
CTETRA      3215       1     108    7773    7855    7854    1025    4997+
+           3192    1769    4996    7891
CTETRA      3216       1     126    6104    6103    6109    1751    6448+
+           1741     801    6467    6469
CTETRA      3217       1      81    6159    6164    6161    2291    6713+
+           1308    2119    6706    6714
CTETRA      3218       1      50      48    7862    7861     469     485+
+           2647    2337    3363    7884
CTETRA      3219       1     175    7956    5301    7955    3259    5364+
+           1190    1189    8006    5365
CTETRA      3220       1     244    5916     246    5911    2397    2399+
+           2388    2392    5926    2393
CTETRA      3221       1     238     197    3998    3999    2178    2731+
+           2187    2138    3877    4202
CTETRA      3222       1     155    7915    7916    8019    3336    7942+
+           3146    3334    5099    5098
CTETRA      3223       1    6108    7058    7386     159    1573    7125+
+           6484    1072    1066    3690
CTETRA      3224       1     170    7002    7008    7003    3512    7023+
+           2842    2847    7025    7024
CTETRA      3225       1     159     160    6107     161    1049    1370+
+           1567    1054    1056    1378
CTETRA      3226       1     126    3995    4006    3994     798    4233+
+           1292    2582    4240    4239
CTETRA      3227       1    7008    4149    4016    7834    2673    4740+
+           2675    7040    4738    4741
CTETRA      3228       1     125    6110     160    6106    1576    1578+
+           1577    1570    6470    3639
CTETRA      3229       1     125    3996    4004    4005    1058    4227+
+           1060    1299    4229    4230
CTETRA      3230       1     126    6109    6103    6112     801    6469+
+           1741     802    6479    6478
CTETRA      3231       1      79     104      95    5531    2037    2038+
+           2017    2025    2194    2030
CTETRA      3232       1    5513    5512    7638    5411    5624    5897+
+           5896    1778    3398    5489
CTETRA      3233       1    5559      17    5574      12    3045    3370+
+           5763    3044     309    2479
CTETRA      3234       1     216    7100    6156    6078    1621    1806+
+           1804    1691    3689    6683
CTETRA      3235       1      15      12    5558    5573     297    2478+
+           3315     305     303    5760
CTETRA      3236       1     215     149    6197     217    2812    1923+
+           1629    1627    1924    1628
CTETRA      3237       1     186    6157    6079    6156    1266    6689+
+           1876    1803    6690    6684
CTETRA      3238       1      62    6079     224    6125    1874    1877+
+           2832     516    6542    2862
CTETRA      3239       1      89    7861      48      50    2336    3363+
+           3367    2338    2337     469
CTETRA      3240       1     155    7916    7917    8018    3146    7943+
+           3275    1019    5101    5100
CTETRA      3241       1    5593    7909    5578    5594    3891    3319+
+           5818    5819    2964    5820
CTETRA      3242       1     168    7007     170    7002    2851    2853+
+           1157    3518    7020    3512
CTETRA      3243       1      28    4193     160     111    1366    1367+
+           1365    1374    1398    1375
CTETRA      3244       1     218    8065    8064    5402    3868    8093+
+           1679    1681    5434    5437
CTETRA      3245       1     191    4163      31    4162    3790    1272+
+           1349    1465    4813    1466
CTETRA      3246       1      62    4156    4142    4143    2834    4781+
+           2070    1706    4778    4782
CTETRA      3247       1      94    7847    7848    8085     688    7898+
+            632    3571    5174    5171
CTETRA      3248       1    6125    6124      63    6122    6545    3479+
+            518    6540    6537    2089
CTETRA      3249       1     166    5576    5575    5591    1123    5767+
+           3377    1127    5812    5811
CTETRA      3250       1      83      86      88     228     593    2776+
+            598    1858    2717    2330
CTETRA      3251       1      95    8083    5408    8084    3909    5476+
+           2199     710    8112    5477
CTETRA      3252       1    5594    7973    5593    7909    3818    3781+
+           5819    2964    5031    3891
CTETRA      3253       1     132    5965    5970    5971     856    5977+
+            845    1967    5980    5979
CTETRA      3254       1     104      95      38      93    2038     702+
+            681     663     634     680
CTETRA      3255       1      75      74     137      79     563    2039+
+           3153    2021     574    2040
CTETRA      3256       1      95    7850    8082    8083    2016    5168+
+           3178    3909    5167    8111
CTETRA      3257       1    5516    5515      75      79    5636    2036+
+           2022    2020    2035    2021
CTETRA      3258       1     186    6079     216    6156    1876    1873+
+           1799    1803    6684    1804
CTETRA      3259       1     118    5577    5578    5562    2962    5773+
+            754     750    5772    5774
CTETRA      3260       1     157    4086    4084    4079    3580    4431+
+           1047    1246    4428    4433
CTETRA      3261       1     165    5296     166    7968    1125    1124+
+           1112    1129    5333    3207
CTETRA      3262       1     157    6208    6213    6201    1235    6902+
+           1436    2360    6900    6905
CTETRA      3263       1      54    8012     144    8011    2594    2600+
+            912     892    8056    3314
CTETRA      3264       1     177    5569    5584    5585    1199    5791+
+           3808    2000    5793    5792
CTETRA      3265       1     190    4189    4178    4190    1328    4925+
+           1383    1389    4930    4926
CTETRA      3266       1      89    8071    8072    7861    2339    8100+
+           2342    2336    5146    5145
CTETRA      3267       1     111    4193     213    4180    1398    2558+
+           2562    3767    4951    2554
CTETRA      3268       1     190    4189    4190    4188    1328    4930+
+           1389    1397    4929    4928
CTETRA      3269       1     112     190     193    6088    1315    1385+
+           1395    3903    3902    3489
CTETRA      3270       1     156    4083     245     107    2353    3025+
+           3024    2808    3575    3028
CTETRA      3271       1     184    6158    5914    6080    3594    3685+
+           2766    2768    6695    2770
CTETRA      3272       1     166    5591    5575    5590    1127    5811+
+           3377    3332    5810    5809
CTETRA      3273       1    7669    5964    4179    8179    5991    2689+
+           3842    7671    5992    4906
CTETRA      3274       1    7099    6163    6156    7426    1796    6709+
+           3661    7246    6711    6686
CTETRA      3275       1      75    5515    5405    5412    2036    3879+
+           3910    2826    3454    5500
CTETRA      3276       1      16    5528    5544    5529    3188    5676+
+           3134    3325    5625    5677
CTETRA      3277       1    5517    5408    5409      95    3906    5478+
+           3836     703    2199    3708
CTETRA      3278       1      83    7769    7768    7859     583    7785+
+           3317     606    4989    4986
CTETRA      3279       1     237    3987    4000    3986    3878    4207+
+           2154    2142    4209    4204
CTETRA      3280       1     110    5529      76    5514    3326    3372+
+           1767    1786    5627    1787
CTETRA      3281       1    7771     182    7684    3991    2151    2148+
+           2152    4278    3418    3884
CTETRA      3282       1    7636    5410    5412    5514    5487    5504+
+           5503    5893    3380    1788
CTETRA      3283       1     107      52     158    4089    1037    1224+
+           1042     685    1225    1226
CTETRA      3284       1     166    7966    7967    5299    3137    7995+
+           3499    3330    5355    5358
CTETRA      3285       1     238    5973     127     255    3473    3475+
+           2184    3710    3741    3763
CTETRA      3286       1      40    4072    4050    4051     942    4377+
+            413    3859    4375    4378
CTETRA      3287       1      42    4065    4072    4052     945    4372+
+            445     441    4370    4373
CTETRA      3288       1    7067    4060    7530    4071    2405    4324+
+           7355    3810    4364    4363
CTETRA      3289       1    7065    3986    7532    4054    2732    4206+
+           7359    2733    4307    4306
CTETRA      3290       1    5186    7736    5185    3990    5215    5214+
+           5191     909    4291    1530
CTETRA      3291       1    5402    8066    5401     218    5433    5430+
+           5431    1681    1684    1685
CTETRA      3292       1     247    5520     250    5535    3769    3881+
+           2433    3249    5651    3250
CTETRA      3293       1    6047    7066    7065    7393    2409    7148+
+           2407    6273    7147    7146
CTETRA      3294       1    6092    6020     237    6019    6395    2132+
+           3624    6394    6264    2133
CTETRA      3295       1      54    5181    6172    5180    3435    3633+
+           2596    3308    5194    3636
CTETRA      3296       1     252     106      97     202    2547     672+
+           3171    2551    2949    3102
CTETRA      3297       1     151     197    5972    6021    1427    1958+
+           1957    3834    2737    3673
CTETRA      3298       1     247     248     133     249    2422    2515+
+           3503    2424    2421    2516
CTETRA      3299       1     165    5577     103    5576    3893    2961+
+           1109    1121    5770    1122
CTETRA      3300       1     249    7756    7872    7871    3324    4963+
+           3107    3257    4962    7874
CTETRA      3301       1     238     197    5972     255    2178    1958+
+           3112    3710    3712    3753
CTETRA      3302       1      90     169      21      91    1594    1596+
+           1595     608    2301    2297
CTETRA      3303       1      85    5511    5526    5527    3887    5615+
+           3281    3286    5618    5617
CTETRA      3304       1     198    4055    3987    3986    3857    4311+
+           2369    2141    4309    4209
CTETRA      3305       1     237     197     238    3999    2176    2178+
+           2129    2137    3877    2138
CTETRA      3306       1     196    7066    4060    4054    2402    2404+
+           1584    2735    3734    4325
CTETRA      3307       1      37    6050    6045    6053     396    6301+
+           1497    1502    6313    6312
CTETRA      3308       1    7064    6019    7391    6092    2146    6392+
+           7141    3623    6394    6393
CTETRA      3309       1     250    5519    5407    5406    3882    3911+
+           3873    3872     337    5465
CTETRA      3310       1     247    8061    8191    5397    3551    8089+
+           2432    3541    5456    5460
CTETRA      3311       1     238    4001    3999    4002    2140    4211+
+           2138    2186    4216    4215
CTETRA      3312       1      38    5548    5533    5532    3885    5689+
+           3490    3213    5688    5641
CTETRA      3313       1     250    8088    5407    8191    3642    5462+
+           3873    2434    8117    5461
CTETRA      3314       1    5509    5399    7641    5404    3772    5446+
+           5903    3890    5450    5451
CTETRA      3315       1     197    3988    3999    3987    3832    4199+
+           3877    2368    4201    4200
CTETRA      3316       1    7064    7063    6092    7391    7142    3665+
+           3623    7141    7140    6393
CTETRA      3317       1    5519    5407    7631    5520    3911    5458+
+           5883    5652    3895    5882
CTETRA      3318       1    7082    4038    7515    7083    2502    4530+
+           7325    7199    2503    7324
CTETRA      3319       1     136     139     137     135    2966    2810+
+            874     868     879     873
CTETRA      3320       1      64    6205    6063    6062    2493    6898+
+           2492    1085    6897    6803
CTETRA      3321       1      31    6139    6144    6140    3236    6623+
+           3234     370    6607    6621
CTETRA      3322       1    5409      95      94    5517    3708     635+
+            698    3836     703     704
CTETRA      3323       1    7099    7100    4167    7498    7250    1620+
+           3426    7291    7290    4822
CTETRA      3324       1     224    4142    4166    4165    2835    4859+
+           2762    1801    4860    4827
CTETRA      3325       1     183    6164    6157    6163    1251    6716+
+           1250    2861    6717    6710
CTETRA      3326       1      53    6227    6060    6229    2274    6998+
+            474    1759    6993    6997
CTETRA      3327       1     250    5519    5535    5520    3882    5650+
+           3250    3881    5652    5651
CTETRA      3328       1     105    5970    5964    5969     848    5976+
+           2693    3451    5975    5974
CTETRA      3329       1     233     244    7763    4128    2260    2262+
+           2252    1911    3865    4654
CTETRA      3330       1     247    5550       3    7698    3054    2745+
+           2423    2867    5874     260
CTETRA      3331       1     250    5407    5520    5397    3873    3895+
+           3881    3542    5459    3679
CTETRA      3332       1     230    6154    6146    6153    1887    6681+
+           1908    2235    6682    6677
CTETRA      3333       1      84    7769    7858    7770     584    4988+
+            590    2636    7786    4991
CTETRA      3334       1      69    4141    5189    4028     548     562+
+            553    2943    4708    2944
CTETRA      3335       1      54    5180      55    5185    3308    2458+
+            483    1529    5190    2461
CTETRA      3336       1      50    8070    7863    8069    3912    5141+
+           3091    3265    8098    5142
CTETRA      3337       1    8087      26    5406      38    3495     339+
+           5467    3496     407     406
CTETRA      3338       1     185    6161      81    6164    3848    2119+
+           1305    1270    6714    1308
CTETRA      3339       1      45    8032     122       7    3205    1159+
+            773     771    3383     772
CTETRA      3340       1     109      84      85    7858    3341     591+
+           3396    3412     590     604
CTETRA      3341       1      73    6170    6067    6168    2621    6746+
+           2451    2750    6747    6735
CTETRA      3342       1    7865    8067     115     114    5138    3523+
+            725     726    3724     717
CTETRA      3343       1     120    7865    7762    7866    3095    4974+
+           3098    3359    7880    4975
CTETRA      3344       1      70     251    4030    4114    2447    2946+
+            545    1177    2618    4580
CTETRA      3345       1    5589      12    5292    5588    3802    3801+
+            273    5804     304    3507
CTETRA      3346       1     217    4119    4108    4107    2532    4603+
+           2819    2756    4604    4571
CTETRA      3347       1      85    8075    8074    5398    3413    8103+
+           3913    3312    5485    5444
CTETRA      3348       1     118      97     119     252     760    3176+
+            757    2535    3171    2546
CTETRA      3349       1     111    6089    6095    6098    1324    6409+
+           2346    1319    6403    6406
CTETRA      3350       1      27    4187    4192    4188     356    4943+
+           2940    1396    4936    4944
CTETRA      3351       1     244     232     222    4128    2381    2380+
+           2377    3865    1912    3803
CTETRA      3352       1     159    7057    7058    3997    1073    7124+
+           1066    1067    1077    1064
CTETRA      3353       1      14    7919    7918    7964    2473    7945+
+            301    3860    5052    5049
CTETRA      3354       1    4193     190    4188    4189    1399    1397+
+           4946    4947    1328    4929
CTETRA      3355       1     142    6074    8010    8009    2267    6367+
+           3018    3014    6368    8058
CTETRA      3356       1     125    6110    6109    6113    1576    6471+
+            800     806    6486    6489
CTETRA      3357       1    6150    6151    6075      55    6662    6660+
+           6657    2610    2601    2607
CTETRA      3358       1      27    4192    4193    4188    2940    4948+
+           2351    1396    4944    4946
CTETRA      3359       1     112    8029     193      11    3914    2216+
+           1395    2953    2218    2215
CTETRA      3360       1     111      27    6098    6096    2350    1382+
+           1319    1376    1377    6408
CTETRA      3361       1      94    5518      38    5406    3837     408+
+            678     699     338     406
CTETRA      3362       1     160     213    6106    6096    2557    1571+
+           3639    1373    2563    6459
CTETRA      3363       1    8024     102    7911    7910    2543    3229+
+           5088    5089    2539    7937
CTETRA      3364       1     112    6089    6088    8028    1325    6405+
+           3903    2982    6504    6503
CTETRA      3365       1    6083     254    7674    6135    3765    2798+
+           3244    6588    2797    2790
CTETRA      3366       1    4176     188    4012      23    2939    2783+
+           4875    3471    2785     331
CTETRA      3367       1    7675    4177     253     254    3237    2676+
+           3839    2906    2678    2677
CTETRA      3368       1      93    7849    7779    7778     651    5009+
+            654    3218    5006    7793
CTETRA      3369       1     253      33    6137    6139    3517    3691+
+           3871    3814     379    6605
CTETRA      3370       1     173    4107    4108    4113    2654    4571+
+           2821    2663    4570    4572
CTETRA      3371       1     149    4119    4120    4109    2531    4602+
+           2525    2529    4601    4597
CTETRA      3372       1     225    6176    6177    6175    2083    6775+
+           3604    1848    6774    6773
CTETRA      3373       1     217    4119    4109    4108    2532    4601+
+           2530    2819    4603    4575
CTETRA      3374       1     153     138     156    4082    1009    1031+
+           1030    1013    1012    2354
CTETRA      3375       1     153    8019    6202    6203    3915    6884+
+           2358    1029    6885    6886
CTETRA      3376       1      66    6175    6171    6176    1841    6866+
+           2727     822    6774    6864
CTETRA      3377       1     156    6203    6212    6214    1032    6908+
+           2806    3007    6921    6922
CTETRA      3378       1     138    8020    6203    6026     877    6887+
+           1028    3373    6237    6888
CTETRA      3379       1    6176    5182     148    8120     824    1068+
+            958    6847    5231    3869
CTETRA      3380       1     235    7506    4026    4029    2696    4641+
+           3745    2622    4582    4642
CTETRA      3381       1    6067     251      70    6190    2448    2447+
+           2449    6821    3650    2438
CTETRA      3382       1      72    4141    7680    5189     561    3558+
+           2058     560     562    5223
CTETRA      3383       1     148    8119    6196    8120    3068    6862+
+            959    3869    8126    6848
CTETRA      3384       1     174    4116    4114    4115    1184    4589+
+           1176    1175    4590    4584
CTETRA      3385       1      70    4115    4114    4030    1164    4584+
+           1177     545    4583    4580
CTETRA      3386       1     173    6181    6182    6183    2658    6766+
+           2206    2661    6765    6764
CTETRA      3387       1    7086    4121    7511    4125    1822    4607+
+           7317    2817    4620    4622
CTETRA      3388       1     126    6103     223    7670    1741    1750+
+           1749    1739    1742    3899
CTETRA      3389       1    7846     106      96    7781     676     669+
+            674    5012    3764    3448
CTETRA      3390       1    7061    6111    7389    7388    3664    6474+
+           7134    7132    6475    7448
CTETRA      3391       1     124    4009    4005    7537    3346    4254+
+           1298    1296    4253    4243
CTETRA      3392       1      50    8070    8071    7862    3912    8099+
+           2340    2647    5144    5143
CTETRA      3393       1    5185    3990    7736    7737    1530    4291+
+           5214    5213    4646    7741
CTETRA      3394       1    7539    7058    3997    4004    7373    1064+
+           4222    4224    1065    4226
CTETRA      3395       1      54    8011    6027    8012     892    6365+
+           2595    2594    8056    6763
CTETRA      3396       1      66    4037    5186    3990    1824    1356+
+            905     908    4289     909
CTETRA      3397       1    4004    7539    7058    7059    4224    7373+
+           1065    1063    7372    7127
CTETRA      3398       1      67    4037    7768    4035    1823    4285+
+            539    1828    4282    4270
CTETRA      3399       1     132    5966    5965    5971    1968    5982+
+            856    1967    5981    5980
CTETRA      3400       1      54    5186    5180    5185     906    5192+
+           3308    1529    5191    5190
CTETRA      3401       1    5186    7735    7736    4036    5216    7738+
+           5215    3904    4281    4280
CTETRA      3402       1     129    6229    6029    6227    1757    6992+
+           3693    2275    6993    6983
CTETRA      3403       1    7403    6222    7076    6226    6958    1947+
+           7177    6976    6974    1948
CTETRA      3404       1    4048     130     128    4075    3567     826+
+            809    4397    2987     807
CTETRA      3405       1    5180    6150    8122    6027    3783    6654+
+           5209    3309    6656    6655
CTETRA      3406       1      54    6172    6027    5180    2596    6758+
+           2595    3308    3636    3309
CTETRA      3407       1    7073    7074    4078    7524    7172     975+
+           3158    7343    7342    4491
CTETRA      3408       1      41    7069    7070    4050    3612    7160+
+           3467     422     417    3649
CTETRA      3409       1      41      36      40    6056     420     414+
+            421     425    3897     423
CTETRA      3410       1    7491    4014    7106    4163    4812    1279+
+           7277    4810    4808    1280
CTETRA      3411       1      39    7072    6030    7073     811     810+
+            812    1761    7169    3669
CTETRA      3412       1     187    7433    7106    7105    3840    7267+
+           1282    1274    7266    7268
CTETRA      3413       1     165    7969    5297    7968    2974    5340+
+           1118    1129    7993    5339
CTETRA      3414       1     130    4048     129    4099    3567    2043+
+            832    1864    4496    2824
CTETRA      3415       1     121    7868    7759    7869    1666    4968+
+            778    1667    7877    4969
CTETRA      3416       1      23    7054    7661    6134    3493    7108+
+           3830    3775    2384    2383
CTETRA      3417       1    7107    7491    7490    4014    7276    7594+
+           7275    1288    4812    4867
CTETRA      3418       1      23    4176     188    7661    3471    2939+
+           2785    3830    3705    2793
CTETRA      3419       1     253    4177    7675    4016    2676    3237+
+           3839    2685    4879    2894
CTETRA      3420       1     138    8020     139    8019     877     881+
+            880    3338    8048    3335
CTETRA      3421       1     187    6145    7433    7432    1289    6626+
+           3840    3356    6630    7461
CTETRA      3422       1     165     136    7913    7914    2914    2917+
+           2916    2967    2969    7940
CTETRA      3423       1     253    7675     254    7674    3839    2906+
+           2677    2789    7677    2798
CTETRA      3424       1     192    7102    6129    6133    3062    1701+
+           1791    3789    1391    6565
CTETRA      3425       1    7097    7500    7098    4174    7295    7294+
+           7244    1257    4852    1221
CTETRA      3426       1      13     239     182    8016    3042    2147+
+           3036    3444    2638    3445
CTETRA      3427       1     192    7103    7102    6133    1346    7259+
+           3062    3789    3666    1391
CTETRA      3428       1    4174    7097    7501    4173    1257    7296+
+           4856    4855    1300    4857
CTETRA      3429       1    7684    7771    7685     239    2152    2100+
+           7687    2149    2150    3901
CTETRA      3430       1     183    6163    6167    6164    2861    6728+
+           1268    1251    6717    6729
CTETRA      3431       1      61    4106    4110    4104    1819    4561+
+           2815     514    4560    4555
CTETRA      3432       1     185      81    6161     189    1305    2119+
+           3848    1310    1309    2120
CTETRA      3433       1     136    7914    8021    7913    2969    5094+
+            870    2917    7940    5095
CTETRA      3434       1     131    8026    6087    6114    3224    6494+
+           3449    2691    6498    6500
CTETRA      3435       1    7096    7423    6167    7424    7237    6731+
+           3605    7239    7469    6727
CTETRA      3436       1     183    7098    7097    6167    1304    7244+
+           1256    1268    2860    1269
CTETRA      3437       1     186    7099    7100    4167    1795    7250+
+           1805    1809    3426    1620
CTETRA      3438       1    7076    7522    7521    4098    7338    7562+
+           7337    3638    4485    4486
CTETRA      3439       1     220      62     221    6123    1704    2830+
+           1707    2833    1871    2831
CTETRA      3440       1     171    4111    4112    4110    1170    4551+
+           2109    2814    4553    4552
CTETRA      3441       1     163    6179    6185    6181    1218    6787+
+           1090    1202    6778    6788
CTETRA      3442       1    7725    4043    3939    4040    4524    2742+
+           3970    4526    4525     502
CTETRA      3443       1     149     225    6176    6177    2082    2083+
+            961    1925    3604    6775
CTETRA      3444       1     226    8013    8014    7921    1850    8054+
+           2937    2335    5111    5108
CTETRA      3445       1    8014     172     229    6173    1837    1868+
+           1870    6867    2656    2488
CTETRA      3446       1     171    6173     172    6182    2657    2656+
+           1168    2205    6768    2481
CTETRA      3447       1    5545    5560    5544      17    5723    5722+
+           5678    3164    3277    3162
CTETRA      3448       1    6065     229     239    7684    1961    2631+
+           2637    1960    1959    2149
CTETRA      3449       1     239    4032    7770    7771    3870    4275+
+           2634    2150    4277    7787
CTETRA      3450       1     206    8009    7926    8008    3013    5118+
+           3389    3089    8059    5121
CTETRA      3451       1    4040    4105    3939    7725    4541    3529+
+            502    4526    4538    3970
CTETRA      3452       1     141    8009    8010    7925    3016    8058+
+           3318    3267    5119    5116
CTETRA      3453       1     165     167    5297    7969    1115    1119+
+           1118    2974    2975    5340
CTETRA      3454       1     155    8019    7916    8018    3334    5098+
+           3146    1019    8049    5101
CTETRA      3455       1     127    5973    6103    7670    3475    3675+
+           1743    1740    6007    1742
CTETRA      3456       1     173    6182    6174    6183    2206    6767+
+           2480    2661    6764    6770
CTETRA      3457       1     198    7065    7064    6019    3791    7145+
+           2144    2136    3698    2146
CTETRA      3458       1     153    6202    8019    8018    2358    6884+
+           3915    1016    6875    8049
CTETRA      3459       1    3991    3936    7722    4081    3615    3964+
+           4412    4410    1862    4411
CTETRA      3460       1     131     223    4179    4194    3798    3732+
+           2686    2349    3731    4953
CTETRA      3461       1      59    4040    4042    4039     498    4527+
+           2744    2240    4529    4528
CTETRA      3462       1    7685    3991    3936    7722    2101    3615+
+           3961    3963    4412    3964
CTETRA      3463       1    7634    5405    5408    5516    5474    5473+
+           5471    5889    2198    2200
CTETRA      3464       1     109    8076    7857    8075    3908    5153+
+           3437    3411    8104    5154
CTETRA      3465       1      89    5398    8073    5403    3313    5443+
+           1663    2341    5442    5445
CTETRA      3466       1     170    7002    7003    6120    3512    7025+
+           2847    2846    3513    2848
CTETRA      3467       1      59    4040    4043    4042     498    4525+
+           2741    2744    4527    4521
CTETRA      3468       1      60    6064    6207    3934    3557    6891+
+           2713    2706    3826    2715
CTETRA      3469       1    5238    8130    5239    6214    5284    5283+
+           5261    3195    6925    3005
CTETRA      3470       1    5588    5292    7605    7606    3507    5327+
+           5854    5853    5326    7617
CTETRA      3471       1     194    7961    7962    5294    3744    8000+
+           1417    1406    5315    5314
CTETRA      3472       1      14    7964    5292    7963    3860    5330+
+           3506    3307    7998    5329
CTETRA      3473       1      33    4149    4148    7008    2840    4732+
+            391    2668    2673    2674
CTETRA      3474       1       7    8032    8031    6118    3383    8036+
+           1155    1150    6637    6639
CTETRA      3475       1     109    7856    7857    8076    1780    7889+
+           3437    3908    5156    5153
CTETRA      3476       1    7780     146    4058     132    3787    3892+
+           4313     853    1001    3486
CTETRA      3477       1    5518    5517    7633    5409    5644    5887+
+           5886    3838    3836    5479
CTETRA      3478       1     109    5411    8077    8076    1771    5494+
+           1773    3908    5491    8105
CTETRA      3479       1    8082      95    5405      75    3178    2197+
+           5469    3180    2024    3910
CTETRA      3480       1      16      20     109      19     320    3187+
+            693     315    3883     692
CTETRA      3481       1     108    7773    7772    7855    1025    7795+
+           3001    3192    4997    4994
CTETRA      3482       1       4    7976    7906    7977    1481    5025+
+           1484    3322    7985    5026
CTETRA      3483       1      11    8028    7906    7907    2959    5081+
+           1485    1487    5080    7933
CTETRA      3484       1     140    4067    4053    7777     924    4346+
+            883     886    4347    4297
CTETRA      3485       1     112     190    6088    6098    1315    3902+
+           3903    1317    1316    6404
CTETRA      3486       1     131    8026    6090    8027    3224    6497+
+           2690    3222    8041    6492
CTETRA      3487       1     223    5964    4179    7669    3851    2689+
+           3732    3667    5991    3842
CTETRA      3488       1     252    8024    8025    7910    2540    8043+
+           3173    2536    5089    5086
CTETRA      3489       1      99    7911    8023    8024    3228    5091+
+            921    3227    5088    8044
CTETRA      3490       1     154     182      18      19    1239    2995+
+           2994    2997    3184     317
CTETRA      3491       1    7780     146     102    7779    3787    2191+
+            854    7792     932     658
CTETRA      3492       1    4059    4058    5966     132    4317    3485+
+           3768    3841    3486    1968
CTETRA      3493       1     153     155    8018    8019    1017    1019+
+           1016    3915    3334    8049
CTETRA      3494       1     245    4082    4087    4088    3026    4453+
+           3716    2285    4446    4454
CTETRA      3495       1      53    5237     129    5242    2276    2278+
+           1760    2822    5252    2823
CTETRA      3496       1     166    5296    5591    5590    1124    1128+
+           1127    3332    3564    5810
CTETRA      3497       1     248     202    5550    5549    3056    2751+
+           3055    3057    3059    5693
CTETRA      3498       1     135     101     140    7777     872    2802+
+            882     885     916     886
CTETRA      3499       1     180    3931    3932    6200    3422    3945+
+           3534    1227    3916    3828
CTETRA      3500       1     229    7769    7770    4033    2483    7786+
+           2635    2108    4272    4274
CTETRA      3501       1      12      15    5558      20     297    3315+
+           2478     319    2321    3316
CTETRA      3502       1    4099      53    5242    4076    2825    2822+
+           1867    4494    2271    3554
CTETRA      3503       1    5588      12    5292      14     304    3801+
+           3507     700     296    3506
CTETRA      3504       1     194     228     195    5571    2932    2327+
+           1404    3793    3917    3794
CTETRA      3505       1    5587    5588    7606    5293    5801    5853+
+           5852    1412    3508    5325
CTETRA      3506       1      85    7859    8073    8074     605    5150+
+           1664    3913    5149    8102
CTETRA      3507       1      65      54    8012     144     526    2594+
+           2598    2597     912    2600
CTETRA      3508       1     223    7669    5969    5964    3667    5995+
+           3852    3851    5991    5974
CTETRA      3509       1     168       7     170    7758    1132    1151+
+           1157    3446    3201    3728
CTETRA      3510       1      23    4176    7054    7543    3471    3706+
+           3493    3469    4876    7110
CTETRA      3511       1      92    8032    7903    8031    1160    5072+
+            614    3291    8036    5075
CTETRA      3512       1      46    8033    6117    6023    2891    6634+
+            458    2892    6371    6535
CTETRA      3513       1    5589    7605    5588    5292    5855    5854+
+           5804     273    5327    3507
CTETRA      3514       1     139    8020    7915    8019     881    5096+
+           3337    3335    8048    5099
CTETRA      3515       1      76    5514    5515    5412    1787    5632+
+           3402    1785    1788    3454
CTETRA      3516       1     194    7960    7961    5294    1401    8001+
+           3744    1406    5316    5315
CTETRA      3517       1     231    4131    4132    4135    2462    4678+
+           1914    1916    4675    4677
CTETRA      3518       1     229    7685    3940    4032    3597    3974+
+           2104    2630    2099    3856
CTETRA      3519       1    5295    5585    7608    5586    3563    5848+
+           5318    3792    5795    5849
CTETRA      3520       1       4    7701    5595    5305    3320    5869+
+           3918    1489    3321    1495
CTETRA      3521       1    8176    5400    7696    5397    5415    3900+
+           7702    5413    5417    3678
CTETRA      3522       1     218     219    5506    5400    3303    2879+
+           3700    1680    3766    3595
CTETRA      3523       1     247    5400    5397    7696    2418    5417+
+           3541    2873    3900    3678
CTETRA      3524       1     115    7867    8066    7866     768    5133+
+           1686    3360    7879    5136
CTETRA      3525       1    5401     218    5507    5402    1685    1678+
+           3526    5431    1681    3919
CTETRA      3526       1     218    5522    5506    5521    1676    5598+
+           3700    3304    5597    5596
CTETRA      3527       1     172    4111    4034    4033    1169    4550+
+           3302    2111    4549    4273
CTETRA      3528       1     218    8065    7867    7868    3868    5134+
+           1688    1669    5131    7878
CTETRA      3529       1    8179    5964    4179    7816    5992    2689+
+           4906    7822    5993    4904
CTETRA      3530       1    7769     172      67    4034    2482    1838+
+           1852    4271    3302    1830
CTETRA      3531       1       2     219     218     121    3305    3303+
+           1683    1142    1672    1668
CTETRA      3532       1    5583    5301    7611    5302    2308    5361+
+           5843    2294    5368    5369
CTETRA      3533       1    8176    7696    5400    5506    7702    3900+
+           5415    5826    5825    3595
CTETRA      3534       1     199    7077    7520    7521    1942    7335+
+           3365    3364    7336    7563
CTETRA      3535       1    8064     218     219    7869    1679    3303+
+           2878    5129    1670    1675
CTETRA      3536       1    8063     219    8064    5400    2877    2878+
+           8092    5419    3766    5421
CTETRA      3537       1    7077    7404    7076    6226    7180    7179+
+           7181    1943    6977    1948
CTETRA      3538       1     218    7868    8064    8065    1669    5132+
+           1679    3868    5131    8093
CTETRA      3539       1     218    5506     219    5521    3700    2879+
+           3303    3304    5596    2880
CTETRA      3540       1    7076    7403    6226    7404    7177    6976+
+           1948    7179    7486    6977
CTETRA      3541       1      91    7927    7955    8192    2304    5067+
+           1188     612    7954    5069
CTETRA      3542       1    7077    7405    7404    6226    7182    7487+
+           7180    1943    6979    6977
CTETRA      3543       1       2      92       1       7    1140    3290+
+            258     763    1141     275
CTETRA      3544       1    7078    6224    7406    7405    1523    6966+
+           7185    7183    6967    7485
CTETRA      3545       1    7078    4044    4096    7519    3600    4474+
+           1515    7333    4478    4476
CTETRA      3546       1     199    4097    4098    7520    3758    4487+
+           3366    3365    4489    4488
CTETRA      3547       1     242      60    6063    6206    2704    2495+
+           2491    3568    2716    6893
CTETRA      3548       1     181    3932    6218    6200    3825    3812+
+           2569    1228    3828    6934
CTETRA      3549       1      52    4095    4097    4090     977    4482+
+           1934    1222    4473    4481
CTETRA      3550       1    7072    7399    6030    7400    7165    6298+
+            810    7167    7438    6299
CTETRA      3551       1     174      70    4114     251    1174    1177+
+           1176    3845    2447    2618
CTETRA      3552       1    6170    6070      72      71    6752    2723+
+           2748    2615    1991    2057
CTETRA      3553       1     174    6190     251    7089    2437    3650+
+           3845    1182    3652    2619
CTETRA      3554       1     107      52    6209     158    1037    1041+
+           1040    1042    1224    1435
CTETRA      3555       1    5303     201    7974    7973    1494    3817+
+           5381    5380    3920    7988
CTETRA      3556       1     128    7526    7072    7525    3646    7346+
+           1755    2050    7558    7345
CTETRA      3557       1     112    8029    8028    6088    3914    8039+
+           2982    3903    6501    6503
CTETRA      3558       1     201       4    5580    5595    1480    1491+
+           1478    1492    3918    5824
CTETRA      3559       1    5303    5594    7600    7599    3819    5865+
+           5377    5378    5866    7627
CTETRA      3560       1    6049     128     130    6051     817     826+
+            831    6308     825     827
CTETRA      3561       1     204     200    4085     181    2565    1448+
+           2564    2567    1451    1450
CTETRA      3562       1       5    7904    7979    7978    1601    5022+
+            629    3524    5021    7983
CTETRA      3563       1     241    4102    4042    4043    2164    4520+
+           2162    2743    4522    4521
CTETRA      3564       1      52     158    4090     200    1224    1223+
+           1222    1932    1449    1933
CTETRA      3565       1    5595    7701    8175    5305    5869    7708+
+           5868    1495    3321    5391
CTETRA      3566       1     105    5965    7781    4010     855    3782+
+            865     838    2694    4260
CTETRA      3567       1     201    7908    7975    7974    2955    5030+
+           3586    3817    5029    7987
CTETRA      3568       1     201    5595    5594    5303    1492    5822+
+           2965    1494    1493    3819
CTETRA      3569       1     201    7907    7976    7975    1486    5028+
+           1482    3586    5027    7986
CTETRA      3570       1      53    4077    4093    4088    2283    4457+
+            966    2284    4462    4463
CTETRA      3571       1     241    3939    3933    3938    2708    3951+
+           3553    3749    3950    3948
CTETRA      3572       1    5534     250      26    5519    3051    3048+
+           3052    5647    3882     340
CTETRA      3573       1     167    7912    7971    7970    3230    5038+
+           3770    3773    5037    7991
CTETRA      3574       1     157    4086    4079    7773    3580    4428+
+           1246    1033    4427    4403
CTETRA      3575       1     200    4096    4097     199    1511    4480+
+           1935    1941    3797    3758
CTETRA      3576       1    5594    5291    5593    7973    3820    3786+
+           5819    3818    5332    3781
CTETRA      3577       1     241    3933    6207    6217    3553    3556+
+           2714    2574    3070    6942
CTETRA      3578       1     204    6217    6218    3932    2573    6938+
+           2568    3531    3788    3812
CTETRA      3579       1     240    6216    6215    6219    2712    6940+
+           2165    3538    6946    6945
CTETRA      3580       1      34    6127     221    6122    1719    1734+
+           1723    1722    6555    1725
CTETRA      3581       1      56     184    5914    5909    3660    2766+
+            489     488    2760    5919
CTETRA      3582       1      52     199    4097    4095    1936    3758+
+           1934     977    3723    4482
CTETRA      3583       1    8018     154    6201    6204    1015    2359+
+           6873    6879    2361    6876
CTETRA      3584       1     192    7103    4159    7102    1346    3375+
+           3060    3062    7259    3063
CTETRA      3585       1     134     131     105     133    3223     840+
+            860     861    2948     858
CTETRA      3586       1     250     248      26     133    3050    3049+
+           3048    3104    2515    2952
CTETRA      3587       1     220    4164    4144    4143    1696    4863+
+           3726    1703    4864    4763
CTETRA      3588       1     185    4019    4173    4172    1311    4849+
+           1301    1260    4846    4850
CTETRA      3589       1     248    5534      26    5549    3053    3052+
+           3049    3057    5692    3058
CTETRA      3590       1     185    4173    7097    4174    1301    1300+
+           1258    1254    4855    1257
CTETRA      3591       1     208    7095    7094    6160    3736    7235+
+           3616    2125    2781    2780
CTETRA      3592       1    4171    7095    7096    7502    3592    7238+
+           3536    4838    7299    7298
CTETRA      3593       1     247    5535    7697    5520    3249    5876+
+           2868    3769    5651    5879
CTETRA      3594       1    7103    6138    7431    7430    1358    6598+
+           7260    7258    6597    7457
CTETRA      3595       1      22    4185    4191    4012     324    4931+
+            336     330    4920    4932
CTETRA      3596       1    5409    5517    7633    5408    3836    5887+
+           5479    5478    3906    5472
CTETRA      3597       1     247    8061    5397    8062    3551    5456+
+           3541    2417    8090    5420
CTETRA      3598       1      41    6055    6058    6052     426    6336+
+            448     833    6320    6333
CTETRA      3599       1     185    6167    7096    6166    1267    3605+
+           1302    3847    6730    3626
CTETRA      3600       1      87    7861      48      89    3438    3363+
+            902     602    2336    3367
CTETRA      3601       1     219     249    7870       8    2431    2430+
+           2428    1671    3245    3248
CTETRA      3602       1     195    5586    5571    5570    1403    5797+
+           3794    2011    5796    5752
CTETRA      3603       1     204    6217    6220    6218    2573    6953+
+           3796    2568    6938    6955
CTETRA      3604       1    7675     253      33    7674    3839    3517+
+           2666    7677    2789    2665
CTETRA      3605       1     247    7870    7871    8062    2427    7875+
+           3256    2417    5128    5125
CTETRA      3606       1     247    7697    7696    5520    2868    7703+
+           2873    3769    5879    5878
CTETRA      3607       1     219    7697    5521    7696    2869    5828+
+           2880    2872    7703    5829
CTETRA      3608       1     247    7696     219    5400    2873    2872+
+           2429    2418    3900    3766
CTETRA      3609       1       5    7977    7905    7978    3393    5023+
+            292    3524    7984    5024
CTETRA      3610       1    5521     219       2    7697    2880    3305+
+           2876    5828    2869    2874
CTETRA      3611       1       4    5580    7701    7700    1491    5871+
+           3320     265    5870    7707
CTETRA      3612       1       4    7906    7905    7977    1484    7932+
+           3306    3322    5026    5023
CTETRA      3613       1     168     193     249    7756    2219    3292+
+           3293    2227    2225    3324
CTETRA      3614       1       5    5581    7701    5304     630    5836+
+           3392    3525    3584    3799
CTETRA      3615       1     240    7081    7080    6215    2168    7193+
+           3805    2165    2169    3599
CTETRA      3616       1    7382      23    7054    7055    3478    3493+
+           7113    7114    3477    7115
CTETRA      3617       1    5581    7701    5304    7613    5836    3799+
+           3584    5839    5838    5384
CTETRA      3618       1     203    4100    4045    4044    1506    4505+
+           1505    2837    4504    4439
CTETRA      3619       1       4       5    7977    7905     269    3393+
+           3322    3306     292    5023
CTETRA      3620       1     238    5973     255    5972    3473    3741+
+           3710    3112    5987    3753
CTETRA      3621       1    4008    4006     243    4009    4249    2588+
+           2585    4251    4255    3119
CTETRA      3622       1    4005    4004     124    7537    4230    1295+
+           1298    4243    4242    1296
CTETRA      3623       1    7060    7537    4004    7538    7369    4242+
+           1297    7370    7550    4225
CTETRA      3624       1     243    4003    4002    4008    3116    4219+
+           2587    2585    4247    4246
CTETRA      3625       1    5583    7611    5301    7610    5843    5361+
+           2308    5844    7623    5360
CTETRA      3626       1     243    4002    4001     238    2587    4216+
+           3610    2179    2186    2140
CTETRA      3627       1    5582    5581    5300    7612    5783     623+
+           3813    5841    5840    5366
CTETRA      3628       1     201    7974    7909    7908    3817    5032+
+           2552    2955    5029    7935
CTETRA      3629       1     254    7004    6999    7674    2909    7009+
+           3703    2798    7030    7026
CTETRA      3630       1     243    7062    6111    6101    2182    3663+
+           3662    2180    2183    6476
CTETRA      3631       1     195    7959    7960    5295    2771    8002+
+           1405    3806    5320    5319
CTETRA      3632       1      48      87    7766    7861     902    3311+
+            478    3363    3438    4982
CTETRA      3633       1     197    6021    6020    6093    2737    6260+
+           2374    2177    6401    6397
CTETRA      3634       1     198    4055    4056    3987    3857    4312+
+           2370    2369    4311    4304
CTETRA      3635       1      16      76    5544      17    3443    3160+
+           3134     308    3163    3162
CTETRA      3636       1      74     108      76    7853    1022    1770+
+            566     565    3371     568
CTETRA      3637       1      20      16    5543    5558     320    3135+
+           3458    3316    3423    5717
CTETRA      3638       1     110     108      19    7855    1768    2998+
+            695    3185    3192    3186
CTETRA      3639       1     110    7854    7855    8078    1765    7891+
+           3185    3459    5160    5157
CTETRA      3640       1     101    7778    7850    7849     919    5007+
+           2019     652    5006    7896
CTETRA      3641       1      95    8082    5408    8083    3178    5475+
+           2199    3909    8111    5476
CTETRA      3642       1      75    8081    5405    8082    3855    5470+
+           3910    3180    8110    5469
CTETRA      3643       1     131    4179    4010    7782    2686    4905+
+            841     842    4958    4959
CTETRA      3644       1     127    3998    4007    4002    2188    4244+
+           2580    2185    4217    4245
CTETRA      3645       1     124     127     243    6112     803    2586+
+           3345     792     804    3739
CTETRA      3646       1    7387    6113    7060    6112    6488     788+
+           7129    6483    6490     789
CTETRA      3647       1      75      76    8080    7853     567    2828+
+           2827     564     568    5161
CTETRA      3648       1      95    8083    7849    7850    3909    5170+
+            653    2016    5167    7896
CTETRA      3649       1     197    6021    6042    6020    2737    6258+
+           1428    2374    6260    6259
CTETRA      3650       1     238     127     243    4002    2184    2586+
+           2179    2186    2185    2587
CTETRA      3651       1     124     243    6111    6112    3345    3662+
+           3683     792    3739    6481
CTETRA      3652       1      75    5405    8081    8080    3910    5470+
+           3855    2827    5502    8109
CTETRA      3653       1     110    8079    8078    5410    1782    8107+
+           3459    1775    5505    5497
CTETRA      3654       1      75    7852    7853    8080    3154    7893+
+            564    2827    5164    5161
CTETRA      3655       1    7698     247     219       3    2867    2429+
+           2870     260    2423    3255
CTETRA      3656       1      32    4149     170    4151    3519    2839+
+           1152    1146    4748    1154
CTETRA      3657       1     235    6170    6169    6066    2612    6749+
+           3619    2628    6748    6743
CTETRA      3658       1      29    6139     253      31     378    3814+
+           3516     368    3236    2669
CTETRA      3659       1     103    5546      77    5561    3500    2029+
+           3208    3461    5726    3921
CTETRA      3660       1      69      72    5184    5189     555     558+
+            551     553     560    5205
CTETRA      3661       1     193    8030    8029    6025    2229    8038+
+           2216    2365    6525    6502
CTETRA      3662       1     165    7913    7969    7914    2916    5039+
+           2974    2967    7940    5042
CTETRA      3663       1     242    6206    6063    6205    3568    6893+
+           2491    2494    6899    6898
CTETRA      3664       1     247     249     133    7872    2424    2516+
+           3503    2435    3107    3106
CTETRA      3665       1      64     242      60    6063    2242    2704+
+            523    2492    2491    2495
CTETRA      3666       1    8067    8068     114    7865    8096    3896+
+           3724    5138    5137     726
CTETRA      3667       1     241      60     242    6206    2705    2704+
+           2171    2710    2716    3568
CTETRA      3668       1      50    8069    5399    8070    3265    5423+
+           3264    3912    8098    5452
CTETRA      3669       1     242    7081    7082    4041    2170    7196+
+           2498    2489    3733    2500
CTETRA      3670       1     132    5965    4059    7780     856    3777+
+           3841     853     857    4315
CTETRA      3671       1    5587    7607    5586    5294    5851    5850+
+           5798    3436    5310    1407
CTETRA      3672       1     228    5556     195    5571    3748    2777+
+           2327    3917    5754    3794
CTETRA      3673       1     195    7923    7960    7959    2933    5060+
+           1405    2771    5059    8002
CTETRA      3674       1     241    6207    6206    6216    2714    6894+
+           2710    2576    6943    6939
CTETRA      3675       1     241    3938    4043    3939    3749    3191+
+           2743    2708    3950    2742
CTETRA      3676       1      90    5582      91    5567     626     628+
+            608    3299    5785    3800
CTETRA      3677       1     122    8032      46    8033    1159    3204+
+           3065    1134    8035    2891
CTETRA      3678       1     194     228    5572      15    2932    2322+
+           3922    1410    2318    2323
CTETRA      3679       1     194    7922    7961    7960    1414    5058+
+           3744    1401    5057    8001
CTETRA      3680       1     228    5571    5572    5556    3917    5755+
+           2322    3748    5754    5756
CTETRA      3681       1     194    5571    5587    5572    3793    5799+
+           1411    3922    5755    5800
CTETRA      3682       1     195    5555    5571    5556    2009    5753+
+           3794    2777    5709    5754
CTETRA      3683       1     194    7921    7962    7961    2313    5056+
+           1417    3744    5055    8000
CTETRA      3684       1     194      15    5572    5587    1410    2323+
+           3922    1411    1413    5800
CTETRA      3685       1      42    5235    5236    6058    3850    5249+
+            450     438    3844     449
CTETRA      3686       1      44      41    4075    4051    2984    2047+
+           2986    2990    3858    4391
CTETRA      3687       1     190    6025    6100    7001    2980    6422+
+           1381    2857    2981    3515
CTETRA      3688       1    7528    4070      36    7529    4357     404+
+            418    7554    4362     419
CTETRA      3689       1    4074     128    4048    4047     808     809+
+           4388    4386    2042    4387
CTETRA      3690       1      71    4140    4027    4026    1994    4703+
+            550    3560    4702    4645
CTETRA      3691       1    7632    5409    5518    7633    5482    3838+
+           5885    7656    5479    5886
CTETRA      3692       1    7069    7396    6056    7397    7156    6323+
+           3614    7158    7442    6321
CTETRA      3693       1    7107    4014    7106    7491    1288    1279+
+           7271    7276    4812    7277
CTETRA      3694       1      67    4037    7767    7768    1823    4286+
+            540     539    4285    7788
CTETRA      3695       1    7637    5514    5513    5410    5894    5628+
+           5895    5486    3380    1777
CTETRA      3696       1    6173    6065    6184     171    6786    6782+
+           6784    2657    2201    2202
CTETRA      3697       1      94    8086    8085    5409     697    8114+
+           3571     698    5484    5481
CTETRA      3698       1      94    8084    5409    8085     711    5480+
+            698    3571    8113    5481
CTETRA      3699       1     172    4034    7769    4033    3302    4271+
+           2482    2111    4273    4272
CTETRA      3700       1     254    6999    6086    6083    3703    3455+
+           3702    3765    3701    6507
CTETRA      3701       1    5406    5409    5518    7632    5483    3838+
+            338    5464    5482    5885
CTETRA      3702       1     226    8013    7921    7922    1850    5111+
+           2335    2310    5110    7948
CTETRA      3703       1      15    5587    5293    5588    1413    1412+
+           1409     306    5801    3508
CTETRA      3704       1      50     114    5509    5399    3262    3603+
+           3075    3264    3263    3772
CTETRA      3705       1     175     177     141     206    1197    1540+
+           3923    3347    1545    2001
CTETRA      3706       1    5583    5582    5302    7611    5786     627+
+           2294    5843    5842    5369
CTETRA      3707       1       2    5551       5      21    3121    3300+
+           3289    1606     322    3133
CTETRA      3708       1      55    6151    6075     231    2601    6660+
+           2607    2464    2602    2608
CTETRA      3709       1      82    5523    5539    5524     580    5661+
+           2644     582    5605    5662
CTETRA      3710       1    7679    6071    5184    8118    3757    3755+
+           5224    5226    6739    5227
CTETRA      3711       1    4127      55    5185    7766    2466    2461+
+           2469    4714     482    3177
CTETRA      3712       1    7679      72     212    7680    3756    2059+
+           2067    7682    2058    2060
CTETRA      3713       1     120    7760    7867    7761    3357    4970+
+            769     785    7784    4973
CTETRA      3714       1     116    7863    7764    7864    3090    4978+
+           3099    3351    7882    4979
CTETRA      3715       1     233    8009     142     206    3866    3014+
+           2251    3269    3013    2248
CTETRA      3716       1     170    4149    7007    4150    2839    3514+
+           2853    2850    4743    2852
CTETRA      3717       1    6077    6072    8142    5916    6380    6362+
+           6384    2398    2401    5946
CTETRA      3718       1     218    5507    5402    5506    1678    3919+
+           1681    3700    5600    3596
CTETRA      3719       1     116    7762    7865    7763    3097    4974+
+            730    2246    7799    4977
CTETRA      3720       1     150    4063     147     100     987     984+
+            988    1928     927    1927
CTETRA      3721       1     100     147    6039     145    1927    1099+
+           1921     925     951    1496
CTETRA      3722       1     236    7679    5185    5180    2068    5211+
+           2460    2459    5207    5190
CTETRA      3723       1    7639    5511    5398    5512    5899    3861+
+           5440    5898    5620    3875
CTETRA      3724       1    8022      93     136      99     648    3559+
+            867     645     646    2929
CTETRA      3725       1    4127     236      55    4131    2468    2457+
+           2466    4684    2452    2465
CTETRA      3726       1      85    5398      89    5511    3312    3313+
+            601    3887    3861    3924
CTETRA      3727       1     175     177    7957    7925    1197    3387+
+           3386    3925    3811    5063
CTETRA      3728       1    5403    5510    7640    5404    3498    5901+
+           5439    5454    3888    5453
CTETRA      3729       1     233     142    8009    6074    2251    3014+
+           3866    2265    2267    6368
CTETRA      3730       1     236    6150    7679    5180    3816    3784+
+           2068    2459    3783    5207
CTETRA      3731       1     168    3992    4150    7007    3464    4744+
+           2849    2851    3465    2852
CTETRA      3732       1     101    7778    7777    7850     919    7794+
+            916    2019    5007    5004
CTETRA      3733       1      72    6071    6150    6149    3754    6650+
+           3821    2724    6646    6651
CTETRA      3734       1     248    5550    5535    5534    3055    5695+
+           3251    3053    5694    5649
CTETRA      3735       1     131    6091     223    6090    2692    3898+
+           3798    2690    6446    2347
CTETRA      3736       1     111    4180     213     223    3767    2554+
+           2562    2344    2556    1753
CTETRA      3737       1     125    6106    6109    6110    1570    6468+
+            800    1576    6470    6471
CTETRA      3738       1    7631    5406    5519    7632    5463     337+
+           5883    7654    5464    5884
CTETRA      3739       1     250     106      26    7846    3105    2950+
+           3048    3824     676    3494
CTETRA      3740       1    7631    7630    5520    5407    7653    5881+
+           5882    5458    5457    3895
CTETRA      3741       1       1    5551    7699    5566     263    5832+
+            262    2514    5739    5835
CTETRA      3742       1      45      32    4151    4146     464    1146+
+           1145    1893    1727    4746
CTETRA      3743       1    8132    6052    5236    6058    6332    2051+
+           5288    6334    6333     449
CTETRA      3744       1    8132    5237    5236    6028    5287    5253+
+           5288    6335    2871    2054
CTETRA      3745       1    7641    5510    5404    7640    5902    3888+
+           5451    7652    5901    5453
CTETRA      3746       1     121    7759    7758    7869     778    7805+
+           3203    1667    4969    4966
CTETRA      3747       1     223    6104    6091    6103    1752    6445+
+           3898    1750    6448    6447
CTETRA      3748       1    5509    7641    5399    7642    5903    5446+
+           3772    5904    7651    5427
CTETRA      3749       1      72    6150     212    6149    3821    2695+
+           2059    2724    6651    3762
CTETRA      3750       1     206    7762    8008     169    3088    2386+
+           3089    3132    3388    2897
CTETRA      3751       1    5244    7776     138     135    3585     889+
+           3382    3843     888     876
CTETRA      3752       1    5509    5510    5404    7641    5612    3888+
+           3890    5903    5902    5451
CTETRA      3753       1      50    7863    8070    7862    3091    5141+
+           3912    2647    7883    5144
CTETRA      3754       1      94    7846    8086    8087     679    5176+
+            697    3905    5175    8115
CTETRA      3755       1     104    5532    5531    5547    2196    5637+
+           2194    3211    5686    5685
CTETRA      3756       1     153    7774    7775    4082    1027    7797+
+           1006    1013    4420    4419
CTETRA      3757       1     115     120     117     121     765    3131+
+            762     767     766    3128
CTETRA      3758       1     121    7760    7868    7867    3358    4971+
+           1666     770    4970    7878
CTETRA      3759       1     143    5540    5555    5556    2642    5708+
+           2008    2778    5710    5709
CTETRA      3760       1     165     167    5577    5592    1115    3273+
+           3893    1117    1116    5815
CTETRA      3761       1      88    5541    5525    5540    2775    5667+
+           3197    2651    5666    5665
CTETRA      3762       1      46    5912    5918    5913    3587    5933+
+           3589    3686    5935    5934
CTETRA      3763       1     113    5538    5523    5522     736    5659+
+            732     723    5658    5601
CTETRA      3764       1      46    5912    5913    3989    3587    5935+
+           3686    3481    3926    3880
CTETRA      3765       1     169    7927    8192    8193    2302    7954+
+           2305    2896    5122    7709
CTETRA      3766       1     123    3989    7761    5912    3657    4263+
+            781    3927    3926    2882
CTETRA      3767       1      50    7862      51    7863    2647     484+
+            472    3091    7883    3093
CTETRA      3768       1    5576    5592     165    5577    5814    1117+
+           1121    5770    5815    3893
CTETRA      3769       1     145    6034    6035    6043    3441    6271+
+            935     936    6270    6272
CTETRA      3770       1     166     139    7914    7915    1114    2968+
+           2970    3379    3337    7941
CTETRA      3771       1    7602    5297    5591    5592    5336    3785+
+           5860    5861    1120    5813
CTETRA      3772       1    7779    7780     146    4058    7792    3787+
+            932    4314    4313    3892
CTETRA      3773       1    5591    5296    5297    7603    1128    5337+
+           3785    5859    5338    5335
CTETRA      3774       1     167    5297    7969    7970    1119    5340+
+           2975    3773    5341    7992
CTETRA      3775       1     167    7969    7913    7970    2975    5039+
+           2918    3773    7992    5040
CTETRA      3776       1    5592    5298    7602    5297    2910    5343+
+           5861    1120    5342    5336
CTETRA      3777       1     165     103     136     139    1109    2928+
+           2914    1111    1110    2966
CTETRA      3778       1    6031     135    8022     140    1950     866+
+           6231    3243     882    1918
CTETRA      3779       1      98    5548    5547    5563    3463    5687+
+           3210     749    5732    5731
CTETRA      3780       1    6026    5239     156     138    2193    3006+
+           3008    3373    3374    1031
CTETRA      3781       1      44     130    5236    5241    2985    2052+
+           3853     443    3569    5248
CTETRA      3782       1     103     101     137     104     661     875+
+           3206     662     664    3167
CTETRA      3783       1     165    5591    5297    5592    1126    3785+
+           1118    1117    5813    1120
CTETRA      3784       1    7643    5401    5507    5402    5425    3526+
+           5907    5432    5431    3919
CTETRA      3785       1     113    5507    5522    5523     719    5599+
+            723     732    5602    5601
CTETRA      3786       1      39    7073    6030    6228    1761    3669+
+            812    1763    1762    6989
CTETRA      3787       1    8025    8024     252     105    8043    2540+
+           3173     847    2542    2541
CTETRA      3788       1    6159    6158    5915      81    6693    3546+
+           3543    2291    3545    2289
CTETRA      3789       1     146    6032    8024    8023    1000    6345+
+           2859    3442    6347    8044
CTETRA      3790       1     218    8066    7867    8065    1684    5133+
+           1688    3868    8094    5134
CTETRA      3791       1     130     129    5237    5242     832    2278+
+           2930    1865    2823    5252
CTETRA      3792       1    8177    7664    4142    4166    7666    2074+
+           4769    4858    2866    4859
CTETRA      3793       1     177    5585    5290    7958    2000    3562+
+           3384    1999    1996    5306
CTETRA      3794       1     114    8068    5399    8069    3896    5422+
+           3263    3266    8097    5423
CTETRA      3795       1    5401    8068     114    8067    5428    3896+
+           3527    5429    8096    3724
CTETRA      3796       1     106     134     202     252     862    2510+
+           2949    2547    2550    2551
CTETRA      3797       1     114    5401    5399    8068    3527    5426+
+           3263    3896    5428    5422
CTETRA      3798       1    5523    5507    5508     113    5602    5604+
+           5603     732     719     727
CTETRA      3799       1     197    4056    4057    3988    2371    4305+
+           1969    3832    4303    4302
CTETRA      3800       1      62    4142    4165    4143    2070    4860+
+           1875    1706    4782    4861
CTETRA      3801       1      50    5404    8070    5399    3889    5448+
+           3912    3264    5450    5452
CTETRA      3802       1      50    5404    8071    8070    3889    5449+
+           2340    3912    5448    8099
CTETRA      3803       1      50    5524      49    5525    3076    2646+
+            468    3280    5609    3196
CTETRA      3804       1     201     119    7909    5579    1472    2545+
+           2552    1476    1475    2963
CTETRA      3805       1      44      40    4051    4072    2971    3859+
+           2990     446     942    4375
CTETRA      3806       1      49    5540    5525    5524    2652    5665+
+           3196    2646    5664    5609
CTETRA      3807       1    7864     114      50    8069    3352    3262+
+           3361    5139    3266    3265
CTETRA      3808       1      82    5509     114    5508    3074    3603+
+            734     581    5608     728
CTETRA      3809       1      42    6057    6043    6058     431    6329+
+            435     438    6337    6339
CTETRA      3810       1     250    8087      26    5406    3641    3495+
+           3048    3872    5467     339
CTETRA      3811       1     132    4059    5965    5966    3841    3777+
+            856    1968    3768    5982
CTETRA      3812       1     252    7910    8025    7909    2536    5086+
+           3173    2544    7936    5087
CTETRA      3813       1     137    7850      79     101    3216    2015+
+           2040     875    2019    2018
CTETRA      3814       1     105    7781    5965    7780     865    3782+
+            855     852    7783     857
CTETRA      3815       1     134    7909    8026    7908    2553    5084+
+           3225    2956    7935    5085
CTETRA      3816       1    6056      36      40    6054    3897     414+
+            423    6324     395     428
CTETRA      3817       1     118     167      99    7911    2922    2926+
+            744    2921    2920    3228
CTETRA      3818       1     152     196     164    4061    1421    1583+
+           1102    1105    1586    1106
CTETRA      3819       1      10     249       3      11    2426    2420+
+            289     284    3254     288
CTETRA      3820       1      38      95     104    5532     702    2038+
+            681    3213    2195    2196
CTETRA      3821       1      41    4051    4073    4075    3858    4383+
+           2046    2047    4391    4393
CTETRA      3822       1    5578    5579    5594    7909    5776    5821+
+           5820    3319    2963    2964
CTETRA      3823       1    4110    4105     171      61    4554    2103+
+           2814    2815    3297    2093
CTETRA      3824       1     224    7664    5914    5909    2865    5940+
+           2765    2759    5936    5919
CTETRA      3825       1     104    5562    5547    5546    2960    5729+
+           3211    3157    5728    5684
CTETRA      3826       1    7851     137    7850      79    3156    3216+
+           7895    3209    2040    2015
CTETRA      3827       1      44    4051    4075    4052    2990    4391+
+           2986     444    4376    4392
CTETRA      3828       1    7747    3989    5913    5912    4265    3880+
+           5957    5958    3926    5935
CTETRA      3829       1    7910     118    7911    5578     753    2921+
+           7937     752     754    2924
CTETRA      3830       1     254    7004      25    6999    2909    3066+
+           2938    3703    7009    3502
CTETRA      3831       1      97     119    5564    5563    3176    3220+
+           3219     759    3232    5733
CTETRA      3832       1     140    4067    4066    4053     924    4343+
+           1931     883    4346    4336
CTETRA      3833       1     140    5240     145    5235    2412    3846+
+           1929    3003    5245    3823
CTETRA      3834       1     251    4114    4029    4030    2618    4578+
+           2623    2946    4580    4579
CTETRA      3835       1     217    6197    6178    6177    1628    6841+
+           1631    1926    6843    6781
CTETRA      3836       1     148    5183    8120    5182    1070    5230+
+           3869    1068    5202    5231
CTETRA      3837       1    7638    5512    7639    5398    5897    5898+
+           7650    5441    3875    5440
CTETRA      3838       1    7638    5513    5411    7637    5896    1778+
+           5489    7658    5895    5492
CTETRA      3839       1     162     163    4103    7084    1078    3713+
+           3715    1080    1079    3714
CTETRA      3840       1     187    7105    7432    7433    1274    7264+
+           3356    3840    7266    7461
CTETRA      3841       1    7106    7491    4163    7492    7277    4810+
+           1280    7278    7583    4811
CTETRA      3842       1     188    7107    4175    4014    1287    2315+
+           2799    1285    1288    4868
CTETRA      3843       1    7493    7105     191    4163    7280    1350+
+           1790    4814    1275    3790
CTETRA      3844       1     113    5538      82    5523     736     735+
+            733     732    5659     580
CTETRA      3845       1       1    5551       5       2     263    3300+
+            267     258    3121    3289
CTETRA      3846       1     114    7643    5508    7642    3815    5906+
+            728    3602    7647    5905
CTETRA      3847       1      82    5538    5539    5523     735    5660+
+           2644     580    5659    5661
CTETRA      3848       1      47    7664    4142    4154    2072    2074+
+           2071    2078    3928    4770
CTETRA      3849       1     186    4169    4170    4167    1262    4837+
+           1808    1809    4825    4836
CTETRA      3850       1      29      30      34    6131     365     383+
+            382    1731    1717    1716
CTETRA      3851       1    7105    7492    4163    7493    7279    4811+
+           1275    7280    7584    4814
CTETRA      3852       1      50    5509     114      82    3075    3603+
+           3262    3077    3074     734
CTETRA      3853       1     205    5539    5554    5555    3082    5705+
+           1533    2006    5707    5706
CTETRA      3854       1     233     206    8008    8009    3269    3089+
+           2258    3866    3013    8059
CTETRA      3855       1     205    5555    5540    5539    2006    5708+
+           2641    3082    5707    5663
CTETRA      3856       1      23    7543    7055    7542    3469    7380+
+           3477    3608    7595    7379
CTETRA      3857       1     130    5242    5236    5241    1865    5251+
+           2052    3569    5250    5248
CTETRA      3858       1     175    7927     176     206    3260    2303+
+           1192    3347    3390    1546
CTETRA      3859       1    5538     205    5539    5554    1526    3082+
+           5660    5704    1533    5705
CTETRA      3860       1      89      50    5525    5510    2338    3280+
+           3279    3863    3862    5611
CTETRA      3861       1    5509    5525      50    5510    5610    3280+
+           3075    5612    5611    3862
CTETRA      3862       1     153    4083    4086    7774    2352    4430+
+           3581    1027    4422    4429
CTETRA      3863       1     202    5565    5564    5580    2504    5736+
+           3221    1479    5781    5780
CTETRA      3864       1     109      85      86    5527    3396     595+
+           3409    3408    3286    3285
CTETRA      3865       1     108    7773    7854    7774    1025    4996+
+           1769    1026    7798    4999
CTETRA      3866       1     220    6123     216      62    2833    1872+
+           1690    1704    1871    1705
CTETRA      3867       1     109    8077    7856    8076    1773    5155+
+           1780    3908    8105    5156
CTETRA      3868       1     184    6158    6080    6157    3594    6695+
+           2768    1249    6696    6694
CTETRA      3869       1    5916    6072    8142    5915    2401    6362+
+           5946    5924    3544    5945
CTETRA      3870       1     153     157    7773    4086    1034    1033+
+           1024    3581    3580    4427
CTETRA      3871       1     167    5592    5297    5298    1116    1120+
+           1119    2911    2910    5342
CTETRA      3872       1      16    5528    5543    5544    3188    5674+
+           3135    3134    5676    5675
CTETRA      3873       1    6124    8144    5918    6023    6530    5950+
+           3704    6529    6359    3829
CTETRA      3874       1     157    4086    4083    4084    3580    4430+
+           3582    1047    4431    4432
CTETRA      3875       1     153     138     155    8019    1009    3148+
+           1017    3915    3338    3334
CTETRA      3876       1     107     153     156    4083    3907    1030+
+           2808    3575    2352    2353
CTETRA      3877       1      79      77     104    5546     571    3166+
+           2037    2027    2029    3157
CTETRA      3878       1     180     181    6200    3932    1229    1228+
+           1227    3534    3825    3828
CTETRA      3879       1    8021    6031     135    8022    6230    1950+
+            869    8046    6231     866
CTETRA      3880       1      78    5546    5530    5545    2028    5682+
+           2034    3168    5681    5680
CTETRA      3881       1    6202     156     107     153    2805    2808+
+           1440    2358    1030    3907
CTETRA      3882       1    6149     207      72    6148    3761    1984+
+           2724    6641    1983    1985
CTETRA      3883       1    5578    5593    7911    7910    5818    3779+
+           2924     752    3780    7937
CTETRA      3884       1      71    4029    4026    4027    2699    4642+
+           3560     550    4644    4645
CTETRA      3885       1     120    7866    7761    7867    3359    4972+
+            785     769    7879    4973
CTETRA      3886       1      81     230     209    4019    2234    1886+
+           2117    1312    2238    2382
CTETRA      3887       1     189    6162    6166    6165    2232    6722+
+           3822    3032    6719    6723
CTETRA      3888       1     148     149    5187    5182     960    2526+
+           1283    1068    1689    5197
CTETRA      3889       1     195    7923    7922    7960    2933    7949+
+           1415    1405    5060    5057
CTETRA      3890       1    5915     222    5916    6072    2927    2801+
+           5924    3544    2800    2401
CTETRA      3891       1     165    5296    5297    5591    1125    5337+
+           1118    1126    1128    3785
CTETRA      3892       1    5593    7971     167    7911    3771    3770+
+           2912    3779    5035    2920
CTETRA      3893       1     120    7762    7761    7866    3098    7800+
+            785    3359    4975    4972
CTETRA      3894       1     148    4123    4124    4120    1166    4614+
+           1167    2534    4613    4612
CTETRA      3895       1    7603    5590    5591    5296    5858    5810+
+           5859    5338    3564    1128
CTETRA      3896       1      77    5545    5561    5546    3169    5725+
+           3921    2029    5681    5726
CTETRA      3897       1     104    5547    5531    5546    3211    5685+
+           2194    3157    5684    5683
CTETRA      3898       1      89      49      88    5525    2649    2650+
+            603    3279    3196    3197
CTETRA      3899       1      95     101    7850    7849     650    2019+
+           2016     653     652    7896
CTETRA      3900       1      96    7780    7848    7847    2858    5011+
+            715     687    5010    7898
CTETRA      3901       1      94    8084    8085    7848     711    8113+
+           3571     632    5172    5171
CTETRA      3902       1      94    8087      38    7846    3905    3496+
+            678     679    5175     675
CTETRA      3903       1     137     103      77     139    3206    3208+
+           2041    2810    1110    3165
CTETRA      3904       1      42    6035     145    5235     437     935+
+            934    3850    2902    3823
CTETRA      3905       1     165     167     136     103    1115    2915+
+           2914    1109    2925    2928
CTETRA      3906       1     217     178    6181     179    2755    1201+
+           2757    2522    1208    1810
CTETRA      3907       1      98    5562    5563    5547     751    5730+
+            749    3210    5729    5731
CTETRA      3908       1     168    8030    6115    8031    2230    6517+
+           2843    1156    8037    6518
CTETRA      3909       1     231    4131    7764    7765    2462    4673+
+           2255    2463    4674    7802
CTETRA      3910       1      45    4145    4146    7759    2084    4759+
+           1893     774    4758    4757
CTETRA      3911       1      93      98     104     103     682     683+
+            663     660     746     662
CTETRA      3912       1    5532    5548      98      38    5688    3463+
+           3214    3213    3885     642
CTETRA      3913       1     168    7001    7006    7007    2221    7016+
+           2228    2851    7019    7018
CTETRA      3914       1     106    7782    7846    7845     864    5015+
+            676    3101    5014    7900
CTETRA      3915       1     168       8    7758    7757    1133    3202+
+           3446    3447    3246    7804
CTETRA      3916       1    7664    5909    4166    8177    5936    2763+
+           2866    7666    5937    4858
CTETRA      3917       1     123    6023    8193    8033    2887    6370+
+           2886    2890    6371    8034
CTETRA      3918       1     117    5537    5553    5538    3127    5701+
+           3083     739    5657    5702
CTETRA      3919       1     175    5584    5568    5583    3348    5790+
+           1194    3349    5789    5788
CTETRA      3920       1      48     141      49      51     911    1539+
+            467     470    1538     471
CTETRA      3921       1     177    5555    5554    5570    2007    5706+
+           1531    2010    5751    5750
CTETRA      3922       1     168     193    7006    7001    2219    1388+
+           2228    2221    2220    7016
CTETRA      3923       1     231    6075    8010    6074    2608    6366+
+           2606    2266    6369    6367
CTETRA      3924       1     249    7757    7756    7871    3247    7808+
+           3324    3257    4965    4962
CTETRA      3925       1      45       7    6118    8032     771    1150+
+            465    3205    3383    6637
CTETRA      3926       1     175    5290     177    5584    3385    3384+
+           1197    3348    3809    3808
CTETRA      3927       1    5584    5583    5301    7610    5789    2308+
+           3350    5845    5844    5360
CTETRA      3928       1     190    6025     193    6088    2980    2365+
+           1385    3902    6423    3489
CTETRA      3929       1     123    7761     120     246     781     785+
+            784    2900    2883    2898
CTETRA      3930       1     105    5970    5969    6087     848    5975+
+           3451    3450    3831    3453
CTETRA      3931       1     112     193    7755     249    1395    1393+
+           1394    3252    3292    3108
CTETRA      3932       1     232    6153     230    6146    2379    2235+
+           1902    1897    6677    1908
CTETRA      3933       1      51    7862    7765    7863     484    4980+
+            487    3093    7883    4981
CTETRA      3934       1    7643    5507    7644    5402    5907    5908+
+           7648    5432    3919    5435
CTETRA      3935       1    7644    5506    5402    5507    5827    3596+
+           5435    5908    5600    3919
CTETRA      3936       1     190    6088    6100    6025    3902    6421+
+           1381    2980    6423    6422
CTETRA      3937       1    7771     109     239      19    3405    3339+
+           2150    3404     692    3391
CTETRA      3938       1      68    8014     229     227    1839    1870+
+           1869    2936    2485    2484
CTETRA      3939       1      13    8016    7919    8015    3444    5104+
+           2474    3039    8052    5107
CTETRA      3940       1    8176    7630    5397    7696    7645    5414+
+           5413    7702    5880    3678
CTETRA      3941       1    8176    7644    5506    5400    7646    5827+
+           5826    5415    5416    3595
CTETRA      3942       1      84      68     229     227     588    1869+
+           2632    3343    2936    2484
CTETRA      3943       1      65    6172      66    6171    2726    3632+
+            529    2725    6761    2727
CTETRA      3944       1    5405    5516    7635    5515    2198    5890+
+           5496    3879    5636    5891
CTETRA      3945       1      95    5532    5516    5531    2195    5638+
+           2023    2030    5637    5635
CTETRA      3946       1     223    6090     111    4194    2347     706+
+           2344    3731     705     707
CTETRA      3947       1    7780    7781    7847      96    7783    5013+
+           5010    2858    3448     687
CTETRA      3948       1      23      24    4185    4186     329     328+
+            325    3607    3720    4921
CTETRA      3949       1      95    5405    5408    8082    2197    5473+
+           2199    3178    5469    5475
CTETRA      3950       1      75    5405    5515    5516    3910    3879+
+           2036    2022    2198    5636
CTETRA      3951       1     133     131     105    7782    2948     840+
+            858     863     842     839
CTETRA      3952       1    8084      95      94    5409     710     635+
+            711    5480    3708     698
CTETRA      3953       1    7634    5408    7633    5517    5471    5472+
+           7655    5888    3906    5887
CTETRA      3954       1      81    6164    6159    6158    1308    6713+
+           2291    3545    6715    6693
CTETRA      3955       1      72      71    4140    4141    2057    1994+
+           2064     561     547    4710
CTETRA      3956       1    5518      26    5533      38     341    3874+
+           5643     408     407    3490
CTETRA      3957       1      95    8083    8084    7849    3909    8112+
+            710     653    5170    5169
CTETRA      3958       1      75      95    5405    5516    2024    2197+
+           3910    2022    2023    2198
CTETRA      3959       1      96    7780    7779    7848    2858    7792+
+            655     715    5011    5008
CTETRA      3960       1      94    5406    8087    8086     699    5467+
+           3905     697    5468    8115
CTETRA      3961       1      97      26      38    5548    3103     407+
+            638    3462    3929    3885
CTETRA      3962       1     185     189    6161    6166    1310    2120+
+           3848    3847    3822    6724
CTETRA      3963       1      94    5518    5406    5409    3837     338+
+            699     698    3838    5483
CTETRA      3964       1      94      38    5518    5517     678     408+
+           3837     704     701    5644
CTETRA      3965       1     133     134     202     106     861    2510+
+           2512     859     862    2949
CTETRA      3966       1     232    6146    6073    6153    1897    6659+
+           3009    2379    6677    6676
CTETRA      3967       1     193    7755    7756    4178    1393    7807+
+           2225    1384    4889    4888
CTETRA      3968       1     175    7956    7927    7926    3259    5068+
+           3260    3591    5065    7953
CTETRA      3969       1     105    8025    5970    6087     847     844+
+            848    3450    6391    3831
CTETRA      3970       1     175    7926    7957    7956    3591    5066+
+           3386    3259    5065    8005
CTETRA      3971       1     144      65      87     226    2597    1832+
+           2648    2329    1831    1833
CTETRA      3972       1    5585    5290    7609    5584    3562    5323+
+           5847    5792    3809    5846
CTETRA      3973       1     105     131     134    8026     840    3223+
+            860    3174    3224    3225
CTETRA      3974       1     195    5586    5585    5295    1403    5795+
+           1997    3806    3792    3563
CTETRA      3975       1     195    7924    7923    7959    2012    7950+
+           2933    2771    5062    5059
CTETRA      3976       1     205    5540     143      49    2641    2642+
+           1541    1536    2652     900
CTETRA      3977       1     177    7925    7958    7957    3811    5064+
+           1999    3387    5063    8004
CTETRA      3978       1     105     131    5969    5964     840    3452+
+           3451    2693    2687    5974
CTETRA      3979       1     131    8190    8027    4194    2348    1329+
+           3222    2349    4956     708
CTETRA      3980       1     175    7925     206     141    3925    3268+
+           3347    3923    3267    2001
CTETRA      3981       1     250    5520    5407    5519    3881    3895+
+           3873    3882    5652    3911
CTETRA      3982       1     205      82      51     206    1527    3078+
+           1535    1544    3079    3012
CTETRA      3983       1     105    8025    6087    8026     847    6391+
+           3450    3174    8042    6494
CTETRA      3984       1      85    5398    8074    8073    3312    5444+
+           3913    1664    5443    8102
CTETRA      3985       1      16      19     110     108     315     695+
+            694     689    2998    1768
CTETRA      3986       1     250     106    7846    7845    3105     676+
+           3824    3394    3101    7900
CTETRA      3987       1      89    5511    5398    5403    3924    3861+
+           3313    2341    3497    5442
CTETRA      3988       1     245    4092    5243    4087    3576    3684+
+           2269    3716    4451    3521
CTETRA      3989       1      89    5510    5511    5403    3863    5616+
+           3924    2341    3498    3497
CTETRA      3990       1     112      11    8028    8029    2953    2959+
+           2982    3914    2218    8039
CTETRA      3991       1      85      89    5526    5511     601    3282+
+           3281    3887    3924    5615
CTETRA      3992       1    5244    4082    3993    4092    3381    4421+
+           2092    3577    4450    4449
CTETRA      3993       1      86    5541    5542    5526    2773    5669+
+           3424    3287    5668    5670
CTETRA      3994       1      53    6227    6061    6060    2274    6987+
+           2279     474    6998    6919
CTETRA      3995       1    5564    5549     202      97    5735    3059+
+           3221    3219    3170    3102
CTETRA      3996       1     190    7006    7000    7005    1386    7015+
+           2856    1390    7014    7012
CTETRA      3997       1      83      68    7768    7769     586    1853+
+           3317     583     587    7785
CTETRA      3998       1     244    4128    4129    7763    3865    4650+
+           2390    2262    4654    4652
CTETRA      3999       1     250    8088    8189    7845    3642    5179+
+           3110    3394    5177    7901
CTETRA      4000       1    7006    7756    3992    4178    2226    4893+
+           3466    1387    4888    4891
CTETRA      4001       1      85    5398    5411    8075    3312    5488+
+           3395    3413    5485    5490
CTETRA      4002       1     109    5411    5512    5513    1771    3398+
+           3397    3400    1778    5624
CTETRA      4003       1      85    7859    8074    7858     605    5149+
+           3913     604    7887    5152
CTETRA      4004       1     252    8025    8026    7909    3173    8042+
+           3175    2544    5087    5084
CTETRA      4005       1     212    6149    6150    6151    3762    6651+
+           2695    2604    6663    6662
CTETRA      4006       1     251    7090    6190    6066    2616    3651+
+           3650    2627    2701    6820
CTETRA      4007       1      20      13      19      16     318     314+
+           3883     320     313     315
CTETRA      4008       1    7781    5965    7815    4010    3782    6017+
+           4258    4260    2694    4256
CTETRA      4009       1     233     231     232    4135    1899    1896+
+           1900    1909    1916    1910
CTETRA      4010       1      17    5559    5575    5560    3045    5765+
+           3376    3277    5721    5766
CTETRA      4011       1     130    4049    5242    5241    1863    1866+
+           1865    3569    3730    5250
CTETRA      4012       1    4025    4129     222    4128    4651    3864+
+           1748    4647    4650    3803
CTETRA      4013       1     222    5911    5910    5916    3644    5927+
+           1746    2801    5926    5925
CTETRA      4014       1     245    4087    5243    4076    3716    3521+
+           2269    2272    4455    2273
CTETRA      4015       1     232     222     230    6153    2380    3894+
+           1902    2379    2292    2235
CTETRA      4016       1     206     233    8008    7763    3269    2258+
+           3089    2250    2252    2259
CTETRA      4017       1    4172      81      80     184    1314     577+
+           3654    3550    1306    3653
CTETRA      4018       1    6159    5915    6158    8141    3543    3546+
+           6693    6691    5944    6692
CTETRA      4019       1    7634    5517    5516    5408    5888    5640+
+           5889    5471    3906    2200
CTETRA      4020       1     131     223    6091    5969    3798    3898+
+           2692    3452    3852    3740
CTETRA      4021       1     220     192    7102    6129    1711    3062+
+           1700    1699    1791    1701
CTETRA      4022       1     123    5917    6076    6023    3930    2593+
+           2888    2887    3876    6374
CTETRA      4023       1     203    7079     240    4100    1520    3540+
+           3539    1506    3827    2160
CTETRA      4024       1    4096    7077     199     200    2838    1942+
+           3797    1511    1944    1941
CTETRA      4025       1    7608    5586    5294    5295    5849    1407+
+           5311    5318    3792    5317
CTETRA      4026       1     149    6197    6177    6196    1923    6843+
+           1925     962    6845    6844
CTETRA      4027       1     148    8120    5183    8119    3869    5230+
+           1070    3068    8126    5229
CTETRA      4028       1    4120    4036    7735    5187    4595    4281+
+           4596    2528    2527    5217
CTETRA      4029       1    7636    5514    7637    5410    5893    5894+
+           7657    5487    3380    5486
CTETRA      4030       1    7636    5412    7635    5515    5503    5501+
+           7660    5892    3454    5891
CTETRA      4031       1     148    5188      70    5183    1069    1163+
+           1165    1070    5201    1247
CTETRA      4032       1      46    3989     123    5912    3481    3657+
+           2889    3587    3926    3927
CTETRA      4033       1      50      89      49      48    2338    2649+
+            468     469    3367     467
CTETRA      4034       1      85    5398    5512    5411    3312    3875+
+           3399    3395    5488    3398
CTETRA      4035       1     130    5241    4075    4049    3569    2988+
+           2987    1863    3730    4399
CTETRA      4036       1    8009    8008     233    6073    8059    2258+
+           3866    6376    6382    2263
CTETRA      4037       1     227    8015    7920    8014    2487    5106+
+           3041    2485    8053    5109
CTETRA      4038       1     246     123    5912    5917    2900    3927+
+           2881    2592    3930    5930
CTETRA      4039       1      84      68    7769     229     588     587+
+            584    2632    1869    2483
CTETRA      4040       1      86      85      88    5526     595     599+
+           2776    3287    3281    3283
CTETRA      4041       1      88    5525    5541    5526    3197    5667+
+           2775    3283    5613    5668
CTETRA      4042       1      49    5524    5539    5540    2646    5662+
+           2645    2652    5664    5663
CTETRA      4043       1      13    8015     239    8016    3039    2639+
+           3042    3444    8052    2638
CTETRA      4044       1      83     227      84      86    1856    3343+
+            585     593    2718     594
CTETRA      4045       1     143    5556    5541    5540    2778    5711+
+           2772    2642    5710    5666
CTETRA      4046       1      93     102      98      99     657    3456+
+            682     646    3226     743
CTETRA      4047       1    8184    4141    7680    4136    4707    3558+
+           7683    4683    4711    2061
CTETRA      4048       1    8144    5917    6023    8143    5949    3876+
+           6359    8149    5948    6360
CTETRA      4049       1    8143    5917    6076    5916    5948    2593+
+           6372    5947    5928    2591
CTETRA      4050       1      12    5558    5574    5559    2478    5762+
+           2479    3044    5718    5763
CTETRA      4051       1     182    6024    6204    8017    3414    6882+
+           2993    2992    6883    6880
CTETRA      4052       1      20    5543    5527    5542    3458    5673+
+           3410    3425    5672    5671
CTETRA      4053       1     154    4079    7772    7773    1240    4402+
+           1241    1035    4403    7795
CTETRA      4054       1     180    6201    6204    6200    2363    6876+
+           2364    1227    6878    6877
CTETRA      4055       1     253      33    7674    6137    3517    2665+
+           2789    3871    3691    3362
CTETRA      4056       1      72    6070    6071    6149    2723    6645+
+           3754    2724    6644    6646
CTETRA      4057       1     137    7850    7777    7851    3216    5004+
+           3217    3156    7895    5005
CTETRA      4058       1     137    7777    7776    7851    3217    7790+
+            890    3156    5005    5002
CTETRA      4059       1      74    7853    7775    7774     565    5001+
+           1007    2804    4998    7797
CTETRA      4060       1      13    8016    8017    7918    3444    8051+
+           3037     302    5105    5102
CTETRA      4061       1    4150    4149    7007    7835    4743    3514+
+           2852    4742    4739    7038
CTETRA      4062       1    5558      16    5543    5559    3423    3135+
+           5717    5718    3046    5719
CTETRA      4063       1     135    5239     138    5244    2192    3374+
+            876    3843    5260    3382
CTETRA      4064       1      93     103     136      99     660    2928+
+           3559     646     747    2929
CTETRA      4065       1    5295     195    7958    5585    3806    1995+
+           5324    3563    1997    1996
CTETRA      4066       1      53    5242    5243    5237    2822    5254+
+           2270    2276    5252    5255
CTETRA      4067       1     169     206     176    7927    3132    1546+
+           2300    2302    3390    2303
CTETRA      4068       1     182    7771      19    7772    2151    3404+
+           3184    1238    7796    3000
CTETRA      4069       1     130     129    6029    6028     832    3693+
+           2446    2053    3694    6306
CTETRA      4070       1     246    6076     123    5917    2589    2888+
+           2900    2592    2593    3930
CTETRA      4071       1     135     137     101    7777     873     875+
+            872     885    3217     916
CTETRA      4072       1     140    5235    7689    5240    3003    5262+
+           2411    2412    5245    5266
CTETRA      4073       1     154     108     153    7773    2999    1021+
+           1014    1035    1025    1024
CTETRA      4074       1    5576      77    5561     103    3270    3921+
+           5769    1122    3208    3461
CTETRA      4075       1     246     123    7761    5912    2900     781+
+           2883    2881    3927    2882
CTETRA      4076       1     246    5911    4130    4129    2393    3630+
+           2884    2391    2394    4661
CTETRA      4077       1    7902     169      92      90    3344    1139+
+           1600    1599    1594     613
CTETRA      4078       1    7762     169     206     120    3388    3132+
+           3088    3098    2899    3261
CTETRA      4079       1       8    7758    7870    7869    3202    4967+
+           3248    1674    4966    7876
CTETRA      4080       1    6087    8025    5970    6022    6391     844+
+           3831    6390    6388     850
CTETRA      4081       1    5538     115    5537    5522     761    3353+
+           5657    5658     722    5656
CTETRA      4082       1     121    7760    7759    7868    3358    7806+
+            778    1666    4971    4968
CTETRA      4083       1       2    5537    5521    5536    3126    5655+
+           2876    2875    5654    5653
CTETRA      4084       1      55     141    8010    8011     894    3318+
+           2605     895     893    8057
CTETRA      4085       1       2    5551    5552    5536    3121    5697+
+           3123    2875    5696    5698
CTETRA      4086       1     247    7698    7697    5535    2867    7704+
+           2868    3249    5877    5876
CTETRA      4087       1    7872    8061    8191     247    5123    8089+
+           5124    2435    3551    2432
CTETRA      4088       1     250    7846      26    8087    3824    3494+
+           3048    3641    5175    3495
CTETRA      4089       1       4    7700    7699    5565     265    7706+
+           2509    2505    5873    5872
CTETRA      4090       1    5547    5532    5548      98    5686    5688+
+           5687    3210    3214    3463
CTETRA      4091       1    7763    7762     244    8008    7799    2385+
+           2262    2259    2386    2261
CTETRA      4092       1    7908    7909     201     134    7935    2552+
+           2955    2956    2553    1471
CTETRA      4093       1     119    5563    5579    5564    3232    5777+
+           1475    3220    5733    5778
CTETRA      4094       1     119    7910     118     252     756     753+
+            757    2546    2536    2535
CTETRA      4095       1    8182    4016    7675    4177    4872    2894+
+           7678    4883    4879    3237
CTETRA      4096       1    7661    4175    8174    4176    2314    4866+
+           7662    3705    4881    4877
CTETRA      4097       1    7642    5401     114    7643    5424    3527+
+           3602    7647    5425    3815
CTETRA      4098       1     171     172     173    6182    1168    1172+
+           1171    2205    2481    2206
CTETRA      4099       1     229    4032     239    7685    2630    3870+
+           2631    3597    2099    3901
CTETRA      4100       1     133    8190    7845    8189    1330    5016+
+           3100    3109    7694    7901
CTETRA      4101       1    7858     109    7770    7857    3412    3460+
+           4991    7888    3437    4990
CTETRA      4102       1     244     222    5911    4129    2377    3644+
+           2392    2390    3864    2394
CTETRA      4103       1     247    7872    8061    7871    2435    5123+
+           3551    3256    7874    5126
CTETRA      4104       1     108    7854    7853    7774    1769    7892+
+           3371    1026    4999    4998
CTETRA      4105       1     247     133     250    7872    3503    3104+
+           2433    2435    3106    2436
CTETRA      4106       1      12    5574    5589       6    2479    5806+
+           3802     666    3369     271
CTETRA      4107       1     202    5549    5564    5565    3059    5735+
+           3221    2504    5737    5736
CTETRA      4108       1      97    5549    5548    5564    3170    5690+
+           3462    3219    5735    5734
CTETRA      4109       1    7780    7781      96     105    7783    3448+
+           2858     852     865     668
CTETRA      4110       1     250     133     106    7845    3104     859+
+           3105    3394    3100    3101
CTETRA      4111       1     248    5549    5550    5534    3057    5693+
+           3055    3053    5692    5694
CTETRA      4112       1    3935      58     171    3940    2212    2097+
+           2105    3956     496    2102
CTETRA      4113       1     201    5594    7973    5303    2965    3818+
+           3920    1494    3819    5380
CTETRA      4114       1     133    7755    8190    8189    2947    7809+
+           1330    3109    4961    7694
CTETRA      4115       1    7918      14    7964      12     301    3860+
+           5049     300     296     665
CTETRA      4116       1     196    6046    6047    6048    1589    6274+
+           2408    1425    6286    6284
CTETRA      4117       1      78    5530    5546    5531    2034    5682+
+           2028    2026    5633    5683
CTETRA      4118       1     140    7690    4053    4066    2355    2356+
+            883    1931    3727    4336
CTETRA      4119       1      75      76      78    5530     567    2829+
+           2031    2033    3401    2034
CTETRA      4120       1     135     139    8020    8021     879     881+
+            878     869    2976    8047
CTETRA      4121       1      91    5582    5583    5567     628    5786+
+           2293    3800    5785    5787
CTETRA      4122       1     104    5546     103    5562    3157    3500+
+            662    2960    5728    2919
CTETRA      4123       1      16    5544      76    5529    3134    3160+
+           3443    3325    5677    3372
CTETRA      4124       1     150    6039    6032     146    1429    6242+
+            996     999    3240    1000
CTETRA      4125       1      92    7902    7903    8032    1600    7929+
+            614    1160    5073    5072
CTETRA      4126       1     140    6035    6031    7689    3004    6343+
+           3243    2411    2903    1953
CTETRA      4127       1       5    7701    5581    7700    3392    5836+
+            630     268    7707    5837
CTETRA      4128       1      90    7902    8192    8194    1599    7928+
+            611     610    5018    7710
CTETRA      4129       1    8190    8027    4194     112    1329     708+
+           4956    1331     713     712
CTETRA      4130       1    6031    7689    6035    8187    1953    2903+
+           6343    6234    7691    6342
CTETRA      4131       1     249    7755    7872    7756    3108    4960+
+           3107    3324    7807    4963
CTETRA      4132       1     112    6088     193    8029    3903    3489+
+           1395    3914    6501    2216
CTETRA      4133       1    5593    7909    7910    5578    3891    7936+
+           3780    5818    3319     752
CTETRA      4134       1     109     239      84    7770    3339    2633+
+           3341    3460    2634    2636
CTETRA      4135       1     131    6114    6087    5969    2691    6500+
+           3449    3452    3590    3453
CTETRA      4136       1      87    7767    7860    7768    1855    4984+
+           3439    1854    7788    4987
CTETRA      4137       1      86    5526    5542    5527    3287    5670+
+           3424    3285    5617    5671
CTETRA      4138       1    7911    7972    5593    7971    5036    3778+
+           3779    5035    7990    3771
CTETRA      4139       1     194    5586    5587    5571    1400    5798+
+           1411    3793    5797    5799
CTETRA      4140       1     118    7911      99     102    2921    3228+
+            744    2537    3229    3226
CTETRA      4141       1      68     172    7769     229    1840    2482+
+            587    1869    1868    2483
CTETRA      4142       1     168     170    4150    7758    1157    2850+
+           2849    3446    3728    4750
CTETRA      4143       1     219     121       2       8    1672    1142+
+           3305    1671    1673     764
CTETRA      4144       1      79     104     137     101    2037    3167+
+           2040    2018     664     875
CTETRA      4145       1     154     108    7773    7772    2999    1025+
+           1035    1241    3001    7795
CTETRA      4146       1      86      20    5542    5557    2719    3425+
+           3424    3440    2320    5714
CTETRA      4147       1       9    8030    7904    7905    2231    5077+
+           1603     291    5076    7931
CTETRA      4148       1      14    7919    7964    7963    2473    5052+
+           3860    3307    5051    7998
CTETRA      4149       1     171     172    4033    4111    1168    2111+
+           2107    1170    1169    4549
CTETRA      4150       1      69      70    4031    5188     543     542+
+            541    2055    1163    3488
CTETRA      4151       1     116    7865    7864    7763     730    7881+
+           3351    2246    4977    4976
CTETRA      4152       1     110    5513    5528    5529    1776    5623+
+           3327    3326    5626    5625
CTETRA      4153       1      16      17    5544    5559     308    3162+
+           3134    3046    3045    5720
CTETRA      4154       1     251    6066    6067    6170    2627    6750+
+           2448    2613    6748    6746
CTETRA      4155       1      51    7765    7764    7863     487    7802+
+           3017    3093    4981    4978
CTETRA      4156       1    6168    6070      72    6170    6753    2723+
+           2749    6747    6752    2748
CTETRA      4157       1     154     108      19      18    2999    2998+
+           2997    2994     691     317
CTETRA      4158       1     251    6066    6190    6067    2627    6820+
+           3650    2448    6750    6821
CTETRA      4159       1      50    7864    7863     116    3361    7882+
+           3091    3092    3351    3090
CTETRA      4160       1      75    8080    5412    5405    2827    5498+
+           2826    3910    5502    5500
CTETRA      4161       1     185    4172    4173    4174    1260    4850+
+           1301    1254    4854    4855
CTETRA      4162       1     206    8009    7925    7926    3013    5119+
+           3268    3389    5118    7952
CTETRA      4163       1      10       3     248    5550     289    2419+
+           2425    2746    2745    3055
CTETRA      4164       1      69      70      73     251     543    2443+
+            557    2945    2447    2450
CTETRA      4165       1      90    7980    5300    7979    3504    5375+
+            620     619    7982    5383
CTETRA      4166       1      92    7904    8031    7903    1602    5074+
+           3291     614    7930    5075
CTETRA      4167       1       4    7701       5    7700    3320    3392+
+            269     265    7707     268
CTETRA      4168       1       1    5566    7699    7700    2514    5835+
+            262     264    5834    7706
CTETRA      4169       1     247    7698    5535    5550    2867    5877+
+           3249    3054    5874    5695
CTETRA      4170       1     168     249       8    7757    3293    3245+
+           1133    3447    3247    3246
CTETRA      4171       1     117     115    5537    5538     762    3353+
+           3127     739     761    5657
CTETRA      4172       1    4140     210      72     207    1554    1987+
+           2064    1553    1555    1984
CTETRA      4173       1      10    7698    5550    7699    2747    5874+
+           2746    2508    7705    5875
CTETRA      4174       1       7     121    7759    7758     779     778+
+            775    3201    3203    7805
CTETRA      4175       1      72    7679    5184    7680    3756    5224+
+            558    2058    7682    5225
CTETRA      4176       1      65    6171    8013    8012    2725    6756+
+            532    2598    6755    8055
CTETRA      4177       1     225    4113    4108    4035    2664    4572+
+           2818    3867    4573    4574
CTETRA      4178       1     245    4088    4087    4076    2285    4454+
+           3716    2272    4460    4455
CTETRA      4179       1      53    4077    4088    4076    2283    4462+
+           2284    2271    4461    4460
CTETRA      4180       1      42      44      40      41     442    2971+
+            429     447    2984     421
CTETRA      4181       1      13      19     239      20     314    3391+
+           3042     318    3883    3340
CTETRA      4182       1     114    8068    7864    7865    3896    5140+
+           3352     726    5137    7881
CTETRA      4183       1    6023    5917    6076    8143    3876    2593+
+           6374    6360    5948    6372
CTETRA      4184       1    8193     123     246    6076    2886    2900+
+           2590    6375    2888    2589
CTETRA      4185       1     230     222      81    6153    3894    1747+
+           2234    2235    2292    2236
CTETRA      4186       1    5916    6077    6076    8142    2398    6385+
+           2591    5946    6384    6373
CTETRA      4187       1      34    4153    4155    4152     384    4774+
+           1737    1735    4776    4775
CTETRA      4188       1      89    5526    5510    5525    3282    5614+
+           3863    3279    5613    5611
CTETRA      4189       1     225    4035    4037      67    3867    4282+
+           1827    1825    1828    1823
CTETRA      4190       1    4154    7748    7664    8177    4767    5955+
+           3928    4768    7752    7666
CTETRA      4191       1      54    7766    7767    3990     479    7789+
+            527     907    4288    4287
CTETRA      4192       1     208    6160     189    7095    2125    2124+
+           2123    3736    2781    3031
CTETRA      4193       1      54      55    6027    8011     483    2609+
+           2595     892     895    6365
CTETRA      4194       1      87    7766    7861    7767    3311    4982+
+           3438    1855    7789    4985
CTETRA      4195       1    7764     116    7763     142    3099    2246+
+           7801    2253    2245    2247
CTETRA      4196       1    4131     236      55     231    2452    2457+
+           2465    2462    2904    2464
CTETRA      4197       1     236    5180      55    6150    2459    2458+
+           2457    3816    3783    2610
CTETRA      4198       1      54      66    6172    5181     530    3632+
+           2596    3435     820    3633
CTETRA      4199       1    5912    5911    7746    4130    5931    5960+
+           5959    2885    3630    4660
CTETRA      4200       1      46     123    3989    7760    2889    3657+
+           3481    3064     786    4264
CTETRA      4201       1      54    7766    3990    5185     479    4288+
+            907    1529    3177    1530
CTETRA      4202       1      80    5910      81    4025    1626    1744+
+            577     576    1745     579
CTETRA      4203       1    4036    4035    4037     225    4283    4282+
+           4284    2854    3867    1827
CTETRA      4204       1     149    5187      66    4036    2526    1598+
+           2081    2524    2527    3583
CTETRA      4205       1     105     106    7782    7781     671     864+
+            839     865    3764    7811
CTETRA      4206       1      85    7858    8074    8075     604    5152+
+           3913    3413    5151    8103
CTETRA      4207       1     173    4111    4113    4034    1173    4568+
+           2663    3301    4550    4569
CTETRA      4208       1      48    7766    7765    7862     478    7803+
+            486     485    4983    4980
CTETRA      4209       1    5508    5524      82    5509    5606     582+
+            581    5608    5607    3074
CTETRA      4210       1     166     155    7915    7916    3141    3336+
+           3379    3140    3146    7942
CTETRA      4211       1     132    6022    8024    6032     849    6346+
+           2548     997    6250    6345
CTETRA      4212       1      99    8023    7911    7912     921    5091+
+           3228    2972    5090    7938
CTETRA      4213       1     205      49      82    5539    1536    2643+
+           1527    3082    2645    2644
CTETRA      4214       1    7910    7909     119    5578    7936    2545+
+            756     752    3319     755
CTETRA      4215       1     231    7764    4131    4135    2255    4673+
+           2462    1916    4672    4675
CTETRA      4216       1      55    6075    6027    8011    2607    6364+
+           2609     895    6363    6365
CTETRA      4217       1     246    5912    5911    5917    2881    5931+
+           2393    2592    5930    5929
CTETRA      4218       1       2    5552    5537    5536    3123    5699+
+           3126    2875    5698    5654
CTETRA      4219       1       5    7700    5581    5566     268    5837+
+            630    2307    5834    5782
CTETRA      4220       1    8069    7864    7863      50    5139    7882+
+           5142    3265    3361    3091
CTETRA      4221       1     222    4129    4025    5911    3864    4651+
+           1748    3644    2394    3643
CTETRA      4222       1     211    6151     212     231    2905    2604+
+           1563    1913    2602    2467
CTETRA      4223       1      55    6150    5180    6027    2610    3783+
+           2458    2609    6656    3309
CTETRA      4224       1     144    8011    8012    7923    3314    8056+
+           2600    2934    5115    5112
CTETRA      4225       1     180     182    3931    6204    3002    3415+
+           3422    2364    2993    3416
CTETRA      4226       1    5304    7977    7701       5    5389    3323+
+           3799    3525    3393    3392
CTETRA      4227       1     247     219       3     249    2429    3255+
+           2423    2424    2431    2420
CTETRA      4228       1    6204    3931    6200    7715    3416    3916+
+           6877    6881    3960    6871
CTETRA      4229       1      11    8028    8029    7906    2959    8039+
+           2218    1485    5081    5078
CTETRA      4230       1     201    7906    7976    7907    1483    5025+
+           1482    1486    7933    5028
CTETRA      4231       1     231     142    7765    7764    2256     899+
+           2463    2255    2253    7802
CTETRA      4232       1     119    5579     202    5564    1475    1477+
+           1474    3220    5778    3221
CTETRA      4233       1      19    7855    7772    7856    3186    4994+
+           3000    1781    7890    4995
CTETRA      4234       1     202    5564    5579    5580    3221    5778+
+           1477    1479    5780    5779
CTETRA      4235       1     134    8027    7908    8026    1320    5082+
+           2956    3225    8041    5085
CTETRA      4236       1    4185    4012      22      23    4920     330+
+            324     325     331     326
CTETRA      4237       1    5515    5531      79    5516    5634    2025+
+           2035    5636    5635    2020
CTETRA      4238       1    7973     201    7974    7909    3920    3817+
+           7988    5031    2552    5032
CTETRA      4239       1      97    5563    5564    5548     759    5733+
+           3219    3462    5732    5734
CTETRA      4240       1      38    5548      26    5533    3885    3929+
+            407    3490    5689    3874
CTETRA      4241       1    7761    5912    3989    7747    2882    3926+
+           4263    4267    5958    4265
CTETRA      4242       1       4    7906     201      11    1484    1483+
+           1480     287    1485    1469
CTETRA      4243       1      46     123    6023    5917    2889    2887+
+           2892    3588    3930    3876
CTETRA      4244       1      89    7860    8072    8073    3284    5148+
+           2342    1663    5147    8101
CTETRA      4245       1     202    5550    5549    5565    2751    5693+
+           3059    2504    5738    5737
CTETRA      4246       1    7762    8008     169     246    2386    2897+
+           3388    2387    2389    2895
CTETRA      4247       1     140     100    6033     145     922    1917+
+           1919    1929     925    1920
CTETRA      4248       1      47    4154    5913    7664    2078    3688+
+           3687    2072    3928    5953
CTETRA      4249       1     167    7912    7911    7971    3230    7938+
+           2920    3770    5038    5035
CTETRA      4250       1     167    7913     136    7912    2918    2917+
+           2915    3230    7939    2973
CTETRA      4251       1    7712    3934    6064    6189    3980    3826+
+           6814    6812    3296    6813
CTETRA      4252       1      62    6125     224    7665     516    2862+
+           2832     520     519    2863
CTETRA      4253       1      90    5302    5300    7980     624    5373+
+            620    3504    5374    5375
CTETRA      4254       1     194    5572     228    5571    3922    2322+
+           2932    3793    5755    3917
CTETRA      4255       1     194     228     226     195    2932    1860+
+           2309    1404    2327    2311
CTETRA      4256       1     227    7921    8014    7920    2931    5108+
+           2485    3041    7947    5109
CTETRA      4257       1      12    7964       6    5292     665     512+
+            666    3801    5330     274
CTETRA      4258       1      46     123    5917    5912    2889    3930+
+           3588    3587    3927    5930
CTETRA      4259       1     194    5587    5586    5294    1411    5798+
+           1400    1406    3436    1407
CTETRA      4260       1      54    5180    5186    5181    3308    5192+
+            906    3435    5194    5193
CTETRA      4261       1     226    8012    7922    7923    2599    5113+
+           2310    2935    5112    7949
CTETRA      4262       1    3940    4032    4112     229    3856    4548+
+           3505    2104    2630    2110
CTETRA      4263       1     195    5555    5570    5571    2009    5751+
+           2011    3794    5753    5752
CTETRA      4264       1      88     143     228      86    2332    2328+
+           2330    2776    2774    2717
CTETRA      4265       1     144    8011    7923    7924    3314    5115+
+           2934    2014    5114    7950
CTETRA      4266       1      15    5557    5573    5558    2317    5759+
+            305    3315    5715    5760
CTETRA      4267       1     223    7669    4179    3994    3667    3842+
+           3732    3368    3668    4907
CTETRA      4268       1    8027     131    4194    6090    3222    2349+
+            708    6492    2690     705
CTETRA      4269       1     233     244    4128     232    2260    3865+
+           1911    1900    2381    1912
CTETRA      4270       1     122     169     123     120    1136    2901+
+            780     783    2899     784
CTETRA      4271       1    7746    5911    4025    4129    5960    3643+
+           4656    4655    2394    4651
CTETRA      4272       1    8033     169      92    7902    1135    1139+
+           1138    5070    3344    1600
CTETRA      4273       1      97    5549      26    5548    3170    3058+
+           3103    3462    5690    3929
CTETRA      4274       1      48      54      87     144     480    3310+
+            902     913     912    2648
CTETRA      4275       1      80    7745    4020    4168    1624    4720+
+            575    3655    4828    4829
CTETRA      4276       1     132    8025    8024    6022     843    8043+
+           2548     849    6388    6346
CTETRA      4277       1     131     133    8027    8190    2948    1321+
+           3222    2348    1330    1329
CTETRA      4278       1    5554     176    5538     205    1532    1525+
+           5704    1533    1524    1526
CTETRA      4279       1     175     141     177    7925    3923    1540+
+           1197    3925    3267    3811
CTETRA      4280       1     169    7927      91    8192    2302    2304+
+           2301    2305    7954     612
CTETRA      4281       1     132     146    6032    8024    1001    1000+
+            997    2548    2859    6345
CTETRA      4282       1     132    6040    6022    6032    1005    6245+
+            849     997    6248    6250
CTETRA      4283       1     246    6077    8008    6076    2396    6383+
+           2389    2589    6385    6378
CTETRA      4284       1      26    5549    5533    5548    3058    5691+
+           3874    3929    5690    5689
CTETRA      4285       1     177    5554    5569    5570    1531    5748+
+           1199    2010    5750    5749
CTETRA      4286       1     164    7067    4071    4060    2413    3810+
+           1579    1585    2405    4364
CTETRA      4287       1     132    6040    5971    6022    1005    1004+
+           1967     849    6245    3707
CTETRA      4288       1     122     169      21      92    1136    1596+
+           3130    1137    1139    1597
CTETRA      4289       1     177    5570    5569    5585    2010    5749+
+           1199    2000    5794    5793
CTETRA      4290       1     177    7924     195    7958    2013    2012+
+           1998    1999    5061    1995
CTETRA      4291       1     175     206    7925    7926    3347    3268+
+           3925    3591    3389    7952
CTETRA      4292       1      55     142     231    8010     897    2256+
+           2464    2605    3018    2606
CTETRA      4293       1      65    7767      54      87     528     527+
+            526    1832    1855    3310
CTETRA      4294       1     175     177    5569    5584    1197    1199+
+           1195    3348    3808    5791
CTETRA      4295       1      89    5511    5510    5526    3924    5616+
+           3863    3282    5615    5614
CTETRA      4296       1     175    5569    5568    5584    1195    5746+
+           1194    3348    5791    5790
CTETRA      4297       1     244    6073    8008    6077    2264    6382+
+           2261    2395    6379    6383
CTETRA      4298       1      25    6134    6081      23    3429    6580+
+           3430     334    3775    3491
CTETRA      4299       1     168    7757    7758    4150    3447    7804+
+           3446    2849    4752    4750
CTETRA      4300       1     122     121    7760    7759     777    3358+
+            787     776     778    7806
CTETRA      4301       1    7748    4154    5913    3989    4767    3688+
+           5956    4266    4765    3880
CTETRA      4302       1    5911    4129    7746    4130    2394    4655+
+           5960    3630    4661    4660
CTETRA      4303       1    7909    5594    7973     201    2964    3818+
+           5031    2552    2965    3920
CTETRA      4304       1      46    5918      47    5913    3589    3752+
+            456    3686    5934    3687
CTETRA      4305       1    6086    6100    7000    6099    6430    2983+
+           3215    6420    6426    2977
CTETRA      4306       1     111    4180    4194    4193    3767    4952+
+            707    1398    4951    4954
CTETRA      4307       1      11    7906    8029    7905    1485    5078+
+           2218    2517    7932    5079
CTETRA      4308       1       4    5595    7701    5580    3918    5869+
+           3320    1491    5824    5871
CTETRA      4309       1     201       4    5595    5305    1480    3918+
+           1492    1488    1489    1495
CTETRA      4310       1    7748    3989    5913    7747    4266    3880+
+           5956    7749    4265    5957
CTETRA      4311       1    4154    7664    4142    8177    3928    2074+
+           4770    4768    7666    4769
CTETRA      4312       1     241    4102    4043    3938    2164    4522+
+           2743    3749    3533    3191
CTETRA      4313       1      14    7920    7919    7963    2476    7946+
+           2473    3307    5054    5051
CTETRA      4314       1    6065    7684    6024    8185    1960    3886+
+           6357    6355    7686    6352
CTETRA      4315       1      13    7920    8015    7919    3040    5106+
+           3039    2474    7946    5107
CTETRA      4316       1       7     170    7758    4151    1151    3728+
+           3201    1147    1154    4751
CTETRA      4317       1     250    5534    5535    5519    3051    5649+
+           3250    3882    5647    5650
CTETRA      4318       1     107    4088    4089    4083     686    4445+
+            685    3575    4444    4443
CTETRA      4319       1    5918    8144    5917    6023    5950    5949+
+           5932    3829    6359    3876
CTETRA      4320       1     250    8088    8087    5406    3642    8116+
+           3641    3872    5466    5467
CTETRA      4321       1      26    5534    5533    5549    3052    5645+
+           3874    3058    5692    5691
CTETRA      4322       1      45    4151       7    7759    1145    1147+
+            771     774    4756     775
CTETRA      4323       1    5914    6158     184      56    3685    3594+
+           2766     489    3547    3660
CTETRA      4324       1      92    8033    7902    8032    1138    5070+
+           1600    1160    8035    5073
CTETRA      4325       1      90      91      21    5567     608    2297+
+           1595    3299    3800     323
CTETRA      4326       1    6122      63      62      47    2089     517+
+           2090    1721    3480    2069
CTETRA      4327       1    5915    6072    8142    8141    3544    6362+
+           5945    5944    6361    8147
CTETRA      4328       1      50    7861    7862    8071    2337    7884+
+           2647    2340    5146    5143
CTETRA      4329       1     230      81     222    4024    2234    1747+
+           3894    1903    2237    3804
CTETRA      4330       1    5406    5519    5407    7631     337    3911+
+           5465    5463    5883    5458
CTETRA      4331       1     177    5585     195    5570    2000    1997+
+           1998    2010    5794    2011
CTETRA      4332       1     244    6072    6073    6077    2400    6381+
+           2264    2395    6380    6379
CTETRA      4333       1    8141    6158    5914    5915    6692    3685+
+           5943    5944    3546    5920
CTETRA      4334       1      85    5511    5512    5398    3887    5620+
+           3399    3312    3861    3875
CTETRA      4335       1    8133    6058    5236    5235    6338     449+
+           5289    5264    3844    5249
CTETRA      4336       1      17     108     155      18     690    1020+
+           3145     312     691    3183
CTETRA      4337       1     238    3998    4002    3999    2187    4217+
+           2186    2138    4202    4215
CTETRA      4338       1     127    4008    4007    4006    2584    4248+
+           2580    1294    4249    4241
CTETRA      4339       1     138    7775     137    7776    1010    3152+
+            887     889    7791     890
CTETRA      4340       1     100     146      99    8023     931    3212+
+            643     920    3442     921
CTETRA      4341       1     169     122      21     117    1136    3130+
+           1596    3085    3129    3086
CTETRA      4342       1    5967    5968    3998    7813    5990    2579+
+           2730    6013    6012    4195
CTETRA      4343       1     238    5972    6094    5973    3112    3113+
+           3111    3473    5987    3759
CTETRA      4344       1    7781      96     105     106    3448     668+
+            865    3764     669     671
CTETRA      4345       1      45    4155    4146    4145    3835    4773+
+           1893    2084    4771    4759
CTETRA      4346       1      74    7775    7853    7852    1007    5001+
+            565    3150    5000    7893
CTETRA      4347       1     253     187      31    6142    3433    1273+
+           2669    3432    3431    3235
CTETRA      4348       1      76    5545    5530    5529    3161    5680+
+           3401    3372    5679    5629
CTETRA      4349       1    4150    7835    7007    3992    4742    7038+
+           2852    4744    4262    3465
CTETRA      4350       1      32     170      33    6119    1152    2841+
+           1894    1149    1153    1895
CTETRA      4351       1      46    6117    8033    8032     458    6634+
+           2891    3204    6636    8035
CTETRA      4352       1     162    4104      64    4038    3776    2244+
+           1084    3807    4542    2501
CTETRA      4353       1    6052    5236    6058      41    2051     449+
+           6333     833     451     448
CTETRA      4354       1     245    5244    5243    4092    3522    5258+
+           2269    3576    3577    3684
CTETRA      4355       1    3935      57    6189      58    3294     509+
+           2211    2212     493    2210
CTETRA      4356       1     246    4129    4130    7762    2391    4661+
+           2884    2387    4653    4659
CTETRA      4357       1      67    4034     172     173    1830    3302+
+           1838    2662    3301    1172
CTETRA      4358       1    8018    8017     154    6204    8050    2991+
+           1015    6879    6880    2361
CTETRA      4359       1      41    7070    6056    6051    3467    3613+
+            425     828    3468    6322
CTETRA      4360       1     175    7926    7925    7957    3591    7952+
+           3925    3386    5066    5063
CTETRA      4361       1    7825    4049    5241    5242    4490    3730+
+           5271    5272    1866    5250
CTETRA      4362       1    7761    7747    4130    5912    4267    4658+
+           4657    2882    5958    2885
CTETRA      4363       1     166    7967    7916    7915    3499    5046+
+           3140    3379    5043    7942
CTETRA      4364       1    5560      77    5561    5576    3271    3921+
+           5724    5768    3270    5769
CTETRA      4365       1      12    5573    5588    5589     303    5803+
+            304    3802    5805    5804
CTETRA      4366       1     145    4067    4065    4066     926    4344+
+            947    1930    4343    4345
CTETRA      4367       1      42    5236    5235    5241     450    5249+
+           3850     439    5248    5247
CTETRA      4368       1      15    5572    5573    5557    2323    5758+
+            305    2317    5757    5759
CTETRA      4369       1    5573    5574    5589      12    5761    5806+
+           5805     303    2479    3802
CTETRA      4370       1     251    6170     235    6066    2613    2612+
+           2611    2627    6748    2628
CTETRA      4371       1    7680    8184    5189    4141    7683    5222+
+           5223    3558    4707     562
CTETRA      4372       1      69    5189    5188    4031     553    5203+
+           2055     541    2942    3488
CTETRA      4373       1    5189    5188    4031    7733    5203    3488+
+           2942    5221    5220    4635
CTETRA      4374       1    5189    4028    4141    7733    2944    4708+
+            562    5221    4637    4706
CTETRA      4375       1     135     138    6026    8020     876    3373+
+           1951     878     877    6237
CTETRA      4376       1     241    3933    3939    3934    3553    3951+
+           2708    2707    3953    3952
CTETRA      4377       1    8130    5238    8131    6061    5284    5285+
+           8137    6928    3019    6984
CTETRA      4378       1     135    7690     140    7689    2257    2355+
+            882    1952    7692    2411
CTETRA      4379       1     153    6203     138    8019    1029    1028+
+           1009    3915    6885    3338
CTETRA      4380       1     246    6076    5916    6077    2589    2591+
+           2399    2396    6385    2398
CTETRA      4381       1    7919    7920      14      13    7946    2476+
+           2473    2474    3040     295
CTETRA      4382       1     109    8075      85    5411    3411    3413+
+           3396    1771    5490    3395
CTETRA      4383       1    8016    7684    6024    6065    2640    3886+
+           6358    6353    1960    6357
CTETRA      4384       1    6091    7670    6103    8180    3833    1742+
+           6447    6450    7673    6449
CTETRA      4385       1    8122    5180    8183    6150    5209    5208+
+           8123    6654    3783    6653
CTETRA      4386       1      83     226      88      87    1834    2331+
+            598     597    1833     600
CTETRA      4387       1    5180    5181    6172    8122    5194    3633+
+           3636    5209    5234    6757
CTETRA      4388       1      57    3940    3939    4105     494    3954+
+            500     491     495    3529
CTETRA      4389       1      72      73    5184    6168     556     559+
+            558    2749    2750    2941
CTETRA      4390       1      33    6120    6137    6130    2845    6586+
+           3691     376    6570    6587
CTETRA      4391       1     241    6216    6217    6207    2576    6944+
+           2574    2714    6943    6942
CTETRA      4392       1      55    6075    8011    8010    2607    6363+
+            895    2605    6366    8057
CTETRA      4393       1      72    5189    7680    5184     560    5223+
+           2058     558    5205    5225
CTETRA      4394       1      72    6071    6168    5184    3754    6740+
+           2749     558    3755    2941
CTETRA      4395       1     251      71    4027    4029    2614     550+
+           3549    2623    2699    4644
CTETRA      4396       1    7834    7007    7008    4149    7039    7022+
+           7040    4738    3514    2673
CTETRA      4397       1     253    4016    7675    7008    2685    2894+
+           3839    2684    2675    7042
CTETRA      4398       1     231    6074    6151    6075    2266    6661+
+           2602    2608    6369    6660
CTETRA      4399       1       6    7966    7965    7917    3138    7996+
+            513    3274    5048    5047
CTETRA      4400       1     254    6083    6082    6135    3765    6509+
+           3760    2797    6588    6584
CTETRA      4401       1      70    5184    5183    5189     552    5206+
+           1247     554    5205    5204
CTETRA      4402       1     238    6093    6102    6094    2131    6437+
+           2190    3111    6402    6439
CTETRA      4403       1     126     213    3995    4180    1572    3729+
+            798    2555    2554    4908
CTETRA      4404       1    5967    5968     255    3998    5990    3743+
+           3742    2730    2579    3711
CTETRA      4405       1     238    6101    6102    6093    2128    6438+
+           2190    2131    6433    6437
CTETRA      4406       1    6094    5972    6021    8154    3113    3673+
+           6400    6398    6003    6253
CTETRA      4407       1     151    6021    6041    6042    3834    6252+
+           2738     994    6258    6261
CTETRA      4408       1    7815    4010    5965    7816    4256    2694+
+           6017    7819    4257    6018
CTETRA      4409       1     196    3986    4054    4055    2734    4307+
+           2735    2373    4309    4310
CTETRA      4410       1    4057    5966     234    7814    3609    3717+
+           1970    4301    6015    3774
CTETRA      4411       1      65    6175    8013    6171    1842    6869+
+            532    2725    6866    6756
CTETRA      4412       1     107     157    4083    4084    1044    3582+
+           3575    1045    1047    4432
CTETRA      4413       1     236    7680    4127    5185    2065    2470+
+           2468    2460    5210    2469
CTETRA      4414       1      93     100     101    7778     647     917+
+            649    3218     918     919
CTETRA      4415       1    5971    8154    8153    6041    6002    8159+
+           6001    3574    6251    6254
CTETRA      4416       1    8015     227     239     229    2487    3043+
+           2639    2486    2484    2631
CTETRA      4417       1    5970    5969    6087    8152    5975    3453+
+           3831    5999    5998    6387
CTETRA      4418       1    4105    7726    3940    3939    4539    3972+
+            495    3529    3971    3954
CTETRA      4419       1    8186    4032    4112    3940    4557    4548+
+           4559    3973    3856    3505
CTETRA      4420       1    8179    7812    4007    7669    7818    4236+
+           4235    7671    6010    3721
CTETRA      4421       1     229    7685    3935    3940    3597    3976+
+           1962    2104    3974    3956
CTETRA      4422       1    4031    5188    4124    7734    3488    1845+
+           4628    4630    5219    4611
CTETRA      4423       1     237    7063    4000    4001    2153    2155+
+           2154    2139    3482    4210
CTETRA      4424       1    5972    5971    6041    8154    5983    3574+
+           3674    6003    6002    6251
CTETRA      4425       1      23     188    6134    7661    2785    2795+
+           3775    3830    2793    2383
CTETRA      4426       1    6218    3932    7714    6200    3812    3984+
+           6936    6934    3828    6872
CTETRA      4427       1    4112    4105    7726    3940    4556    4539+
+           4558    3505     495    3972
CTETRA      4428       1      57      60    3939    3934     505    2709+
+            500    3295    2706    3952
CTETRA      4429       1    8186    3940    4112    7726    3973    3505+
+           4559    7732    3972    4558
CTETRA      4430       1    5969    8152    8151    6087    5998    8157+
+           5997    3453    6387    6386
CTETRA      4431       1      57    3934    3939    3940    3295    3952+
+            500     494    3955    3954
CTETRA      4432       1    5973    6094    6102    8155    3759    6439+
+           3474    6005    6399    6440
CTETRA      4433       1    7712    3934    7713    6207    3980    3981+
+           7719    6889    2715    6890
CTETRA      4434       1    5183     148    6199      70    1070    2444+
+           3071    1247    1165    1181
CTETRA      4435       1    7005    7837    4190    4178    7034    4927+
+            349    3457    4892    4926
CTETRA      4436       1     204    3938    3933    3932    3530    3948+
+           3552    3531    3947    3949
CTETRA      4437       1      66    6176     225    6175     822    2083+
+           1826    1841    6774    1848
CTETRA      4438       1     176    5538    5553    5554    1525    5702+
+           3084    1532    5704    5703
CTETRA      4439       1    7005    4190    7837    4191     349    4927+
+           7034    3484    4937    4940
CTETRA      4440       1     204    3938     241    3933    3530    3749+
+           2572    3552    3948    3553
CTETRA      4441       1     181    6208    6200    6218    1231    6901+
+           1228    2569    6935    6934
CTETRA      4442       1     203     204     240    6216    1503    2159+
+           3539    3795    2575    2712
CTETRA      4443       1     210    6070    6148    6069    1988    6647+
+           1986    1977    6649    6648
CTETRA      4444       1    7094    7504    7503    4021    7302    7580+
+           7301    2893    4697    4718
CTETRA      4445       1     208    6155     209     189    1980    1982+
+           1552    2123    2126    2113
CTETRA      4446       1     171    4110    4112    4105    2814    4552+
+           2109    2103    4554    4556
CTETRA      4447       1      73    6068    6168    6067    2442    6734+
+           2750    2451    6736    6735
CTETRA      4448       1    8015     229     239    6065    2486    2631+
+           2639    6354    1961    2637
CTETRA      4449       1      71    6170      73      72    2615    2621+
+           2056    2057    2748     556
CTETRA      4450       1      69    4030     251    4027     544    2946+
+           2945     549    4639    3549
CTETRA      4451       1     122       7      92     121     772    1141+
+           1137     777     779    1143
CTETRA      4452       1     239    7771    7685    4032    2150    2100+
+           3901    3870    4277    2099
CTETRA      4453       1      54    7766      87    7767     479    3311+
+           3310     527    7789    1855
CTETRA      4454       1      66    4036    5187    5186    3583    2527+
+           1598     905    3904    5195
CTETRA      4455       1    7766      55    5185      54     482    2461+
+           3177     479     483    1529
CTETRA      4456       1      66    3990    7767    4037     908    4287+
+            531    1824    4289    4286
CTETRA      4457       1      66    4036    5186    4037    3583    3904+
+            905    1824    4284    1356
CTETRA      4458       1      66    5187    5181    5186    1598    5196+
+            820     905    5195    5193
CTETRA      4459       1    4102    3938    7724    4043    3533    3968+
+           4519    4522    3191    4523
CTETRA      4460       1    7724    3937    4046    7723    3967    3072+
+           4518    7729    3966    4406
CTETRA      4461       1    5186    7736    4037    4036    5215    4290+
+           1356    3904    4280    4284
CTETRA      4462       1     224    7665    6080    5914    2863    2864+
+           2769    2765    5939    2770
CTETRA      4463       1     135    8020    6026    8021     878    6237+
+           1951     869    8047    6236
CTETRA      4464       1      77    5560    5561    5545    3271    5724+
+           3921    3169    5723    5725
CTETRA      4465       1    7664    4154    5913    7748    3928    3688+
+           5953    5955    4767    5956
CTETRA      4466       1     138    8020    8019    6203     877    8048+
+           3338    1028    6887    6885
CTETRA      4467       1    5244    5243    4092    7823    5258    3684+
+           3577    5276    5275    4447
CTETRA      4468       1      42    5235    6058    6035    3850    3844+
+            438     437    2902    6340
CTETRA      4469       1      53    4077    4099     129    2283    4499+
+           2825    1760    2282    2824
CTETRA      4470       1      44    4052    7826    5241     444    4396+
+           2989     443     440    5270
CTETRA      4471       1     149    4036      66     225    2524    3583+
+           2081    2082    2854    1826
CTETRA      4472       1    6192      70      73    5183    1178    2443+
+           2455    2456    1247    2441
CTETRA      4473       1     180    3931    6200    6204    3422    3916+
+           1227    2364    3416    6877
CTETRA      4474       1     184    4169    4168    4172    1264    4831+
+           3510    3550    4842    4844
CTETRA      4475       1      47      63    7665    5918    3480     521+
+           2088    3752    3697    5952
CTETRA      4476       1    7005    7004    4191    7837    7010     344+
+           3484    7034    7033    4940
CTETRA      4477       1    7715    3931    6024    6204    3960    3417+
+           6351    6881    3416    6882
CTETRA      4478       1    4081     180    3931    4080    3421    3422+
+           3420    4413    1244    3528
CTETRA      4479       1      60    6064    6063    6206    3557    6816+
+           2495    2716    6892    6893
CTETRA      4480       1    7715    6200    3932    3931    6871    3828+
+           3985    3960    3916    3945
CTETRA      4481       1     153     107     157    4083    3907    1044+
+           1034    2352    3575    3582
CTETRA      4482       1     180    3937     181    3932    3535    3555+
+           1229    3534    3944    3825
CTETRA      4483       1     242    6215    6206    6205    2166    6932+
+           3568    2494    6931    6899
CTETRA      4484       1    4080     180    3931    3937    1244    3422+
+           3528    3548    3535    3943
CTETRA      4485       1       8    7870    7758    7757    3248    4967+
+           3202    3246    4964    7804
CTETRA      4486       1     253    6137    7674    6136    3871    3362+
+           2789    2788    6593    2791
CTETRA      4487       1     182    3931    7684    3991    3415    3958+
+           2148    3418    3419    3884
CTETRA      4488       1    7002    8165    6120    6115    7048    6632+
+           3513    3511    6522    6633
CTETRA      4489       1      34      47     221    4155    1720    1724+
+           1723    1737    2087    1738
CTETRA      4490       1    6065    8185    7711    7684    6355    7717+
+           6356    1960    7686    3977
CTETRA      4491       1    7684    3931    6024    8185    3958    3417+
+           3886    7686    3959    6352
CTETRA      4492       1      79    7851      75    8082    3209    3155+
+           2021    3179    5165    3180
CTETRA      4493       1     130    4048    4049    4075    3567    4398+
+           1863    2987    4397    4399
CTETRA      4494       1    8165    6120    7003    7002    6632    2848+
+           7047    7048    3513    7025
CTETRA      4495       1     254      25    4013    4012    2938    3067+
+           2908    2784     332    4887
$*
$* PROPERTY CARDS
$*
$*  NX Property: PSOLID1
PSOLID         1       1       0                           SMECH
$*
$* MATERIAL CARDS
$*
$*  NX Material: Steel
MAT1           12.0694+8        0.2880007.8290-61.1141-5
MATT1          1       1               2               3
TABLEM1        1                                                        +
+        20.00002.0694+8 21.11002.0694+8    ENDT
TABLEM1        2                                                        +
+        20.00000.288000 21.11000.288000 23.89000.288000 37.78000.288000+
+        51.67000.289000 65.56000.289000 79.44000.290000 93.33000.290000+
+       107.22000.291000121.11000.291000135.00000.291000148.89000.292000+
+       162.78000.292000176.67000.293000190.56000.293000204.44000.293000+
+       218.33000.294000232.22000.294000246.11000.294000260.00000.295000+
+       273.89000.295000287.78000.296000301.67000.296000315.56000.296000+
+       329.44000.297000343.33000.297000357.22000.298000371.11000.298000+
+       385.00000.298000398.89000.299000412.78000.299000426.67000.300000+
+       440.56000.300000454.44000.301000468.33000.301000482.22000.302000+
+       496.11000.302000510.00000.303000523.89000.304000537.78000.304000+
+       551.67000.305000565.56000.306000579.44000.307000593.33000.308000+
+       607.22000.309000621.11000.310000635.00000.311000648.89000.312000+
+       662.78000.313000676.67000.314000690.56000.316000704.44000.317000+
+           ENDT
TABLEM1        3                                                        +
+        20.00001.1280-5 93.33001.1790-5107.22001.1880-5121.11001.1970-5+
+       135.00001.2060-5148.89001.2132-5162.78001.2222-5176.67001.2312-5+
+       190.56001.2402-5204.44001.2492-5218.33001.2582-5232.22001.2672-5+
+       246.11001.2762-5260.00001.2852-5273.89001.2942-5287.78001.3032-5+
+       301.67001.3122-5315.56001.3212-5329.44001.3302-5343.33001.3392-5+
+       357.22001.3464-5371.11001.3554-5385.00001.3644-5398.89001.3734-5+
+       412.78001.3806-5426.67001.3896-5440.56001.3986-5454.44001.4058-5+
+       468.33001.4148-5482.22001.4238-5496.11001.4310-5510.00001.4400-5+
+       523.89001.4472-5537.78001.4544-5551.67001.4616-5565.56001.4688-5+
+       579.44001.4742-5593.33001.4796-5607.22001.4832-5621.11001.4886-5+
+       635.00001.4904-5648.89001.4922-5662.78001.4922-5676.67001.4922-5+
+       690.56001.4904-5704.44001.4886-5718.33001.4850-5732.22001.4796-5+
+       746.11001.4724-5760.00001.4634-5773.89001.4472-5787.78001.4256-5+
+       801.67001.4004-5815.56001.3680-5    ENDT
$*
$* LOAD AND CONSTRAINT CARDS
$*
$*  NX Load and Constraint: Fixed(1)
SPC            1    3931  123456  0.0000
SPC            1    3932  123456  0.0000
SPC            1    3933  123456  0.0000
SPC            1    3934  123456  0.0000
SPC            1    3935  123456  0.0000
SPC            1    3936  123456  0.0000
SPC            1    3937  123456  0.0000
SPC            1    3938  123456  0.0000
SPC            1    3939  123456  0.0000
SPC            1    3940  123456  0.0000
SPC            1    3941  123456  0.0000
SPC            1    3942  123456  0.0000
SPC            1    3943  123456  0.0000
SPC            1    3944  123456  0.0000
SPC            1    3945  123456  0.0000
SPC            1    3946  123456  0.0000
SPC            1    3947  123456  0.0000
SPC            1    3948  123456  0.0000
SPC            1    3949  123456  0.0000
SPC            1    3950  123456  0.0000
SPC            1    3951  123456  0.0000
SPC            1    3952  123456  0.0000
SPC            1    3953  123456  0.0000
SPC            1    3954  123456  0.0000
SPC            1    3955  123456  0.0000
SPC            1    3956  123456  0.0000
SPC            1    3957  123456  0.0000
SPC            1    3958  123456  0.0000
SPC            1    3959  123456  0.0000
SPC            1    3960  123456  0.0000
SPC            1    3961  123456  0.0000
SPC            1    3962  123456  0.0000
SPC            1    3963  123456  0.0000
SPC            1    3964  123456  0.0000
SPC            1    3965  123456  0.0000
SPC            1    3966  123456  0.0000
SPC            1    3967  123456  0.0000
SPC            1    3968  123456  0.0000
SPC            1    3969  123456  0.0000
SPC            1    3970  123456  0.0000
SPC            1    3971  123456  0.0000
SPC            1    3972  123456  0.0000
SPC            1    3973  123456  0.0000
SPC            1    3974  123456  0.0000
SPC            1    3975  123456  0.0000
SPC            1    3976  123456  0.0000
SPC            1    3977  123456  0.0000
SPC            1    3978  123456  0.0000
SPC            1    3979  123456  0.0000
SPC            1    3980  123456  0.0000
SPC            1    3981  123456  0.0000
SPC            1    3982  123456  0.0000
SPC            1    3983  123456  0.0000
SPC            1    3984  123456  0.0000
SPC            1    3985  123456  0.0000
SPC            1    5180  123456  0.0000
SPC            1    5181  123456  0.0000
SPC            1    5182  123456  0.0000
SPC            1    5183  123456  0.0000
SPC            1    5184  123456  0.0000
SPC            1    5185  123456  0.0000
SPC            1    5186  123456  0.0000
SPC            1    5187  123456  0.0000
SPC            1    5188  123456  0.0000
SPC            1    5189  123456  0.0000
SPC            1    5190  123456  0.0000
SPC            1    5191  123456  0.0000
SPC            1    5192  123456  0.0000
SPC            1    5193  123456  0.0000
SPC            1    5194  123456  0.0000
SPC            1    5195  123456  0.0000
SPC            1    5196  123456  0.0000
SPC            1    5197  123456  0.0000
SPC            1    5198  123456  0.0000
SPC            1    5199  123456  0.0000
SPC            1    5200  123456  0.0000
SPC            1    5201  123456  0.0000
SPC            1    5202  123456  0.0000
SPC            1    5203  123456  0.0000
SPC            1    5204  123456  0.0000
SPC            1    5205  123456  0.0000
SPC            1    5206  123456  0.0000
SPC            1    5207  123456  0.0000
SPC            1    5208  123456  0.0000
SPC            1    5209  123456  0.0000
SPC            1    5210  123456  0.0000
SPC            1    5211  123456  0.0000
SPC            1    5212  123456  0.0000
SPC            1    5213  123456  0.0000
SPC            1    5214  123456  0.0000
SPC            1    5215  123456  0.0000
SPC            1    5216  123456  0.0000
SPC            1    5217  123456  0.0000
SPC            1    5218  123456  0.0000
SPC            1    5219  123456  0.0000
SPC            1    5220  123456  0.0000
SPC            1    5221  123456  0.0000
SPC            1    5222  123456  0.0000
SPC            1    5223  123456  0.0000
SPC            1    5224  123456  0.0000
SPC            1    5225  123456  0.0000
SPC            1    5226  123456  0.0000
SPC            1    5227  123456  0.0000
SPC            1    5228  123456  0.0000
SPC            1    5229  123456  0.0000
SPC            1    5230  123456  0.0000
SPC            1    5231  123456  0.0000
SPC            1    5232  123456  0.0000
SPC            1    5233  123456  0.0000
SPC            1    5234  123456  0.0000
SPC            1    5235  123456  0.0000
SPC            1    5236  123456  0.0000
SPC            1    5237  123456  0.0000
SPC            1    5238  123456  0.0000
SPC            1    5239  123456  0.0000
SPC            1    5240  123456  0.0000
SPC            1    5241  123456  0.0000
SPC            1    5242  123456  0.0000
SPC            1    5243  123456  0.0000
SPC            1    5244  123456  0.0000
SPC            1    5245  123456  0.0000
SPC            1    5246  123456  0.0000
SPC            1    5247  123456  0.0000
SPC            1    5248  123456  0.0000
SPC            1    5249  123456  0.0000
SPC            1    5250  123456  0.0000
SPC            1    5251  123456  0.0000
SPC            1    5252  123456  0.0000
SPC            1    5253  123456  0.0000
SPC            1    5254  123456  0.0000
SPC            1    5255  123456  0.0000
SPC            1    5256  123456  0.0000
SPC            1    5257  123456  0.0000
SPC            1    5258  123456  0.0000
SPC            1    5259  123456  0.0000
SPC            1    5260  123456  0.0000
SPC            1    5261  123456  0.0000
SPC            1    5262  123456  0.0000
SPC            1    5263  123456  0.0000
SPC            1    5264  123456  0.0000
SPC            1    5265  123456  0.0000
SPC            1    5266  123456  0.0000
SPC            1    5267  123456  0.0000
SPC            1    5268  123456  0.0000
SPC            1    5269  123456  0.0000
SPC            1    5270  123456  0.0000
SPC            1    5271  123456  0.0000
SPC            1    5272  123456  0.0000
SPC            1    5273  123456  0.0000
SPC            1    5274  123456  0.0000
SPC            1    5275  123456  0.0000
SPC            1    5276  123456  0.0000
SPC            1    5277  123456  0.0000
SPC            1    5278  123456  0.0000
SPC            1    5279  123456  0.0000
SPC            1    5280  123456  0.0000
SPC            1    5281  123456  0.0000
SPC            1    5282  123456  0.0000
SPC            1    5283  123456  0.0000
SPC            1    5284  123456  0.0000
SPC            1    5285  123456  0.0000
SPC            1    5286  123456  0.0000
SPC            1    5287  123456  0.0000
SPC            1    5288  123456  0.0000
SPC            1    5289  123456  0.0000
SPC            1    5506  123456  0.0000
SPC            1    5507  123456  0.0000
SPC            1    5508  123456  0.0000
SPC            1    5509  123456  0.0000
SPC            1    5510  123456  0.0000
SPC            1    5511  123456  0.0000
SPC            1    5512  123456  0.0000
SPC            1    5513  123456  0.0000
SPC            1    5514  123456  0.0000
SPC            1    5515  123456  0.0000
SPC            1    5516  123456  0.0000
SPC            1    5517  123456  0.0000
SPC            1    5518  123456  0.0000
SPC            1    5519  123456  0.0000
SPC            1    5520  123456  0.0000
SPC            1    5521  123456  0.0000
SPC            1    5522  123456  0.0000
SPC            1    5523  123456  0.0000
SPC            1    5524  123456  0.0000
SPC            1    5525  123456  0.0000
SPC            1    5526  123456  0.0000
SPC            1    5527  123456  0.0000
SPC            1    5528  123456  0.0000
SPC            1    5529  123456  0.0000
SPC            1    5530  123456  0.0000
SPC            1    5531  123456  0.0000
SPC            1    5532  123456  0.0000
SPC            1    5533  123456  0.0000
SPC            1    5534  123456  0.0000
SPC            1    5535  123456  0.0000
SPC            1    5536  123456  0.0000
SPC            1    5537  123456  0.0000
SPC            1    5538  123456  0.0000
SPC            1    5539  123456  0.0000
SPC            1    5540  123456  0.0000
SPC            1    5541  123456  0.0000
SPC            1    5542  123456  0.0000
SPC            1    5543  123456  0.0000
SPC            1    5544  123456  0.0000
SPC            1    5545  123456  0.0000
SPC            1    5546  123456  0.0000
SPC            1    5547  123456  0.0000
SPC            1    5548  123456  0.0000
SPC            1    5549  123456  0.0000
SPC            1    5550  123456  0.0000
SPC            1    5551  123456  0.0000
SPC            1    5552  123456  0.0000
SPC            1    5553  123456  0.0000
SPC            1    5554  123456  0.0000
SPC            1    5555  123456  0.0000
SPC            1    5556  123456  0.0000
SPC            1    5557  123456  0.0000
SPC            1    5558  123456  0.0000
SPC            1    5559  123456  0.0000
SPC            1    5560  123456  0.0000
SPC            1    5561  123456  0.0000
SPC            1    5562  123456  0.0000
SPC            1    5563  123456  0.0000
SPC            1    5564  123456  0.0000
SPC            1    5565  123456  0.0000
SPC            1    5566  123456  0.0000
SPC            1    5567  123456  0.0000
SPC            1    5568  123456  0.0000
SPC            1    5569  123456  0.0000
SPC            1    5570  123456  0.0000
SPC            1    5571  123456  0.0000
SPC            1    5572  123456  0.0000
SPC            1    5573  123456  0.0000
SPC            1    5574  123456  0.0000
SPC            1    5575  123456  0.0000
SPC            1    5576  123456  0.0000
SPC            1    5577  123456  0.0000
SPC            1    5578  123456  0.0000
SPC            1    5579  123456  0.0000
SPC            1    5580  123456  0.0000
SPC            1    5581  123456  0.0000
SPC            1    5582  123456  0.0000
SPC            1    5583  123456  0.0000
SPC            1    5584  123456  0.0000
SPC            1    5585  123456  0.0000
SPC            1    5586  123456  0.0000
SPC            1    5587  123456  0.0000
SPC            1    5588  123456  0.0000
SPC            1    5589  123456  0.0000
SPC            1    5590  123456  0.0000
SPC            1    5591  123456  0.0000
SPC            1    5592  123456  0.0000
SPC            1    5593  123456  0.0000
SPC            1    5594  123456  0.0000
SPC            1    5595  123456  0.0000
SPC            1    5596  123456  0.0000
SPC            1    5597  123456  0.0000
SPC            1    5598  123456  0.0000
SPC            1    5599  123456  0.0000
SPC            1    5600  123456  0.0000
SPC            1    5601  123456  0.0000
SPC            1    5602  123456  0.0000
SPC            1    5603  123456  0.0000
SPC            1    5604  123456  0.0000
SPC            1    5605  123456  0.0000
SPC            1    5606  123456  0.0000
SPC            1    5607  123456  0.0000
SPC            1    5608  123456  0.0000
SPC            1    5609  123456  0.0000
SPC            1    5610  123456  0.0000
SPC            1    5611  123456  0.0000
SPC            1    5612  123456  0.0000
SPC            1    5613  123456  0.0000
SPC            1    5614  123456  0.0000
SPC            1    5615  123456  0.0000
SPC            1    5616  123456  0.0000
SPC            1    5617  123456  0.0000
SPC            1    5618  123456  0.0000
SPC            1    5619  123456  0.0000
SPC            1    5620  123456  0.0000
SPC            1    5621  123456  0.0000
SPC            1    5622  123456  0.0000
SPC            1    5623  123456  0.0000
SPC            1    5624  123456  0.0000
SPC            1    5625  123456  0.0000
SPC            1    5626  123456  0.0000
SPC            1    5627  123456  0.0000
SPC            1    5628  123456  0.0000
SPC            1    5629  123456  0.0000
SPC            1    5630  123456  0.0000
SPC            1    5631  123456  0.0000
SPC            1    5632  123456  0.0000
SPC            1    5633  123456  0.0000
SPC            1    5634  123456  0.0000
SPC            1    5635  123456  0.0000
SPC            1    5636  123456  0.0000
SPC            1    5637  123456  0.0000
SPC            1    5638  123456  0.0000
SPC            1    5639  123456  0.0000
SPC            1    5640  123456  0.0000
SPC            1    5641  123456  0.0000
SPC            1    5642  123456  0.0000
SPC            1    5643  123456  0.0000
SPC            1    5644  123456  0.0000
SPC            1    5645  123456  0.0000
SPC            1    5646  123456  0.0000
SPC            1    5647  123456  0.0000
SPC            1    5648  123456  0.0000
SPC            1    5649  123456  0.0000
SPC            1    5650  123456  0.0000
SPC            1    5651  123456  0.0000
SPC            1    5652  123456  0.0000
SPC            1    5653  123456  0.0000
SPC            1    5654  123456  0.0000
SPC            1    5655  123456  0.0000
SPC            1    5656  123456  0.0000
SPC            1    5657  123456  0.0000
SPC            1    5658  123456  0.0000
SPC            1    5659  123456  0.0000
SPC            1    5660  123456  0.0000
SPC            1    5661  123456  0.0000
SPC            1    5662  123456  0.0000
SPC            1    5663  123456  0.0000
SPC            1    5664  123456  0.0000
SPC            1    5665  123456  0.0000
SPC            1    5666  123456  0.0000
SPC            1    5667  123456  0.0000
SPC            1    5668  123456  0.0000
SPC            1    5669  123456  0.0000
SPC            1    5670  123456  0.0000
SPC            1    5671  123456  0.0000
SPC            1    5672  123456  0.0000
SPC            1    5673  123456  0.0000
SPC            1    5674  123456  0.0000
SPC            1    5675  123456  0.0000
SPC            1    5676  123456  0.0000
SPC            1    5677  123456  0.0000
SPC            1    5678  123456  0.0000
SPC            1    5679  123456  0.0000
SPC            1    5680  123456  0.0000
SPC            1    5681  123456  0.0000
SPC            1    5682  123456  0.0000
SPC            1    5683  123456  0.0000
SPC            1    5684  123456  0.0000
SPC            1    5685  123456  0.0000
SPC            1    5686  123456  0.0000
SPC            1    5687  123456  0.0000
SPC            1    5688  123456  0.0000
SPC            1    5689  123456  0.0000
SPC            1    5690  123456  0.0000
SPC            1    5691  123456  0.0000
SPC            1    5692  123456  0.0000
SPC            1    5693  123456  0.0000
SPC            1    5694  123456  0.0000
SPC            1    5695  123456  0.0000
SPC            1    5696  123456  0.0000
SPC            1    5697  123456  0.0000
SPC            1    5698  123456  0.0000
SPC            1    5699  123456  0.0000
SPC            1    5700  123456  0.0000
SPC            1    5701  123456  0.0000
SPC            1    5702  123456  0.0000
SPC            1    5703  123456  0.0000
SPC            1    5704  123456  0.0000
SPC            1    5705  123456  0.0000
SPC            1    5706  123456  0.0000
SPC            1    5707  123456  0.0000
SPC            1    5708  123456  0.0000
SPC            1    5709  123456  0.0000
SPC            1    5710  123456  0.0000
SPC            1    5711  123456  0.0000
SPC            1    5712  123456  0.0000
SPC            1    5713  123456  0.0000
SPC            1    5714  123456  0.0000
SPC            1    5715  123456  0.0000
SPC            1    5716  123456  0.0000
SPC            1    5717  123456  0.0000
SPC            1    5718  123456  0.0000
SPC            1    5719  123456  0.0000
SPC            1    5720  123456  0.0000
SPC            1    5721  123456  0.0000
SPC            1    5722  123456  0.0000
SPC            1    5723  123456  0.0000
SPC            1    5724  123456  0.0000
SPC            1    5725  123456  0.0000
SPC            1    5726  123456  0.0000
SPC            1    5727  123456  0.0000
SPC            1    5728  123456  0.0000
SPC            1    5729  123456  0.0000
SPC            1    5730  123456  0.0000
SPC            1    5731  123456  0.0000
SPC            1    5732  123456  0.0000
SPC            1    5733  123456  0.0000
SPC            1    5734  123456  0.0000
SPC            1    5735  123456  0.0000
SPC            1    5736  123456  0.0000
SPC            1    5737  123456  0.0000
SPC            1    5738  123456  0.0000
SPC            1    5739  123456  0.0000
SPC            1    5740  123456  0.0000
SPC            1    5741  123456  0.0000
SPC            1    5742  123456  0.0000
SPC            1    5743  123456  0.0000
SPC            1    5744  123456  0.0000
SPC            1    5745  123456  0.0000
SPC            1    5746  123456  0.0000
SPC            1    5747  123456  0.0000
SPC            1    5748  123456  0.0000
SPC            1    5749  123456  0.0000
SPC            1    5750  123456  0.0000
SPC            1    5751  123456  0.0000
SPC            1    5752  123456  0.0000
SPC            1    5753  123456  0.0000
SPC            1    5754  123456  0.0000
SPC            1    5755  123456  0.0000
SPC            1    5756  123456  0.0000
SPC            1    5757  123456  0.0000
SPC            1    5758  123456  0.0000
SPC            1    5759  123456  0.0000
SPC            1    5760  123456  0.0000
SPC            1    5761  123456  0.0000
SPC            1    5762  123456  0.0000
SPC            1    5763  123456  0.0000
SPC            1    5764  123456  0.0000
SPC            1    5765  123456  0.0000
SPC            1    5766  123456  0.0000
SPC            1    5767  123456  0.0000
SPC            1    5768  123456  0.0000
SPC            1    5769  123456  0.0000
SPC            1    5770  123456  0.0000
SPC            1    5771  123456  0.0000
SPC            1    5772  123456  0.0000
SPC            1    5773  123456  0.0000
SPC            1    5774  123456  0.0000
SPC            1    5775  123456  0.0000
SPC            1    5776  123456  0.0000
SPC            1    5777  123456  0.0000
SPC            1    5778  123456  0.0000
SPC            1    5779  123456  0.0000
SPC            1    5780  123456  0.0000
SPC            1    5781  123456  0.0000
SPC            1    5782  123456  0.0000
SPC            1    5783  123456  0.0000
SPC            1    5784  123456  0.0000
SPC            1    5785  123456  0.0000
SPC            1    5786  123456  0.0000
SPC            1    5787  123456  0.0000
SPC            1    5788  123456  0.0000
SPC            1    5789  123456  0.0000
SPC            1    5790  123456  0.0000
SPC            1    5791  123456  0.0000
SPC            1    5792  123456  0.0000
SPC            1    5793  123456  0.0000
SPC            1    5794  123456  0.0000
SPC            1    5795  123456  0.0000
SPC            1    5796  123456  0.0000
SPC            1    5797  123456  0.0000
SPC            1    5798  123456  0.0000
SPC            1    5799  123456  0.0000
SPC            1    5800  123456  0.0000
SPC            1    5801  123456  0.0000
SPC            1    5802  123456  0.0000
SPC            1    5803  123456  0.0000
SPC            1    5804  123456  0.0000
SPC            1    5805  123456  0.0000
SPC            1    5806  123456  0.0000
SPC            1    5807  123456  0.0000
SPC            1    5808  123456  0.0000
SPC            1    5809  123456  0.0000
SPC            1    5810  123456  0.0000
SPC            1    5811  123456  0.0000
SPC            1    5812  123456  0.0000
SPC            1    5813  123456  0.0000
SPC            1    5814  123456  0.0000
SPC            1    5815  123456  0.0000
SPC            1    5816  123456  0.0000
SPC            1    5817  123456  0.0000
SPC            1    5818  123456  0.0000
SPC            1    5819  123456  0.0000
SPC            1    5820  123456  0.0000
SPC            1    5821  123456  0.0000
SPC            1    5822  123456  0.0000
SPC            1    5823  123456  0.0000
SPC            1    5824  123456  0.0000
SPC            1    5825  123456  0.0000
SPC            1    5826  123456  0.0000
SPC            1    5827  123456  0.0000
SPC            1    5828  123456  0.0000
SPC            1    5829  123456  0.0000
SPC            1    5830  123456  0.0000
SPC            1    5831  123456  0.0000
SPC            1    5832  123456  0.0000
SPC            1    5833  123456  0.0000
SPC            1    5834  123456  0.0000
SPC            1    5835  123456  0.0000
SPC            1    5836  123456  0.0000
SPC            1    5837  123456  0.0000
SPC            1    5838  123456  0.0000
SPC            1    5839  123456  0.0000
SPC            1    5840  123456  0.0000
SPC            1    5841  123456  0.0000
SPC            1    5842  123456  0.0000
SPC            1    5843  123456  0.0000
SPC            1    5844  123456  0.0000
SPC            1    5845  123456  0.0000
SPC            1    5846  123456  0.0000
SPC            1    5847  123456  0.0000
SPC            1    5848  123456  0.0000
SPC            1    5849  123456  0.0000
SPC            1    5850  123456  0.0000
SPC            1    5851  123456  0.0000
SPC            1    5852  123456  0.0000
SPC            1    5853  123456  0.0000
SPC            1    5854  123456  0.0000
SPC            1    5855  123456  0.0000
SPC            1    5856  123456  0.0000
SPC            1    5857  123456  0.0000
SPC            1    5858  123456  0.0000
SPC            1    5859  123456  0.0000
SPC            1    5860  123456  0.0000
SPC            1    5861  123456  0.0000
SPC            1    5862  123456  0.0000
SPC            1    5863  123456  0.0000
SPC            1    5864  123456  0.0000
SPC            1    5865  123456  0.0000
SPC            1    5866  123456  0.0000
SPC            1    5867  123456  0.0000
SPC            1    5868  123456  0.0000
SPC            1    5869  123456  0.0000
SPC            1    5870  123456  0.0000
SPC            1    5871  123456  0.0000
SPC            1    5872  123456  0.0000
SPC            1    5873  123456  0.0000
SPC            1    5874  123456  0.0000
SPC            1    5875  123456  0.0000
SPC            1    5876  123456  0.0000
SPC            1    5877  123456  0.0000
SPC            1    5878  123456  0.0000
SPC            1    5879  123456  0.0000
SPC            1    5880  123456  0.0000
SPC            1    5881  123456  0.0000
SPC            1    5882  123456  0.0000
SPC            1    5883  123456  0.0000
SPC            1    5884  123456  0.0000
SPC            1    5885  123456  0.0000
SPC            1    5886  123456  0.0000
SPC            1    5887  123456  0.0000
SPC            1    5888  123456  0.0000
SPC            1    5889  123456  0.0000
SPC            1    5890  123456  0.0000
SPC            1    5891  123456  0.0000
SPC            1    5892  123456  0.0000
SPC            1    5893  123456  0.0000
SPC            1    5894  123456  0.0000
SPC            1    5895  123456  0.0000
SPC            1    5896  123456  0.0000
SPC            1    5897  123456  0.0000
SPC            1    5898  123456  0.0000
SPC            1    5899  123456  0.0000
SPC            1    5900  123456  0.0000
SPC            1    5901  123456  0.0000
SPC            1    5902  123456  0.0000
SPC            1    5903  123456  0.0000
SPC            1    5904  123456  0.0000
SPC            1    5905  123456  0.0000
SPC            1    5906  123456  0.0000
SPC            1    5907  123456  0.0000
SPC            1    5908  123456  0.0000
SPC            1    5909  123456  0.0000
SPC            1    5910  123456  0.0000
SPC            1    5911  123456  0.0000
SPC            1    5912  123456  0.0000
SPC            1    5913  123456  0.0000
SPC            1    5914  123456  0.0000
SPC            1    5915  123456  0.0000
SPC            1    5916  123456  0.0000
SPC            1    5917  123456  0.0000
SPC            1    5918  123456  0.0000
SPC            1    5919  123456  0.0000
SPC            1    5920  123456  0.0000
SPC            1    5921  123456  0.0000
SPC            1    5922  123456  0.0000
SPC            1    5923  123456  0.0000
SPC            1    5924  123456  0.0000
SPC            1    5925  123456  0.0000
SPC            1    5926  123456  0.0000
SPC            1    5927  123456  0.0000
SPC            1    5928  123456  0.0000
SPC            1    5929  123456  0.0000
SPC            1    5930  123456  0.0000
SPC            1    5931  123456  0.0000
SPC            1    5932  123456  0.0000
SPC            1    5933  123456  0.0000
SPC            1    5934  123456  0.0000
SPC            1    5935  123456  0.0000
SPC            1    5936  123456  0.0000
SPC            1    5937  123456  0.0000
SPC            1    5938  123456  0.0000
SPC            1    5939  123456  0.0000
SPC            1    5940  123456  0.0000
SPC            1    5941  123456  0.0000
SPC            1    5942  123456  0.0000
SPC            1    5943  123456  0.0000
SPC            1    5944  123456  0.0000
SPC            1    5945  123456  0.0000
SPC            1    5946  123456  0.0000
SPC            1    5947  123456  0.0000
SPC            1    5948  123456  0.0000
SPC            1    5949  123456  0.0000
SPC            1    5950  123456  0.0000
SPC            1    5951  123456  0.0000
SPC            1    5952  123456  0.0000
SPC            1    5953  123456  0.0000
SPC            1    5954  123456  0.0000
SPC            1    5955  123456  0.0000
SPC            1    5956  123456  0.0000
SPC            1    5957  123456  0.0000
SPC            1    5958  123456  0.0000
SPC            1    5959  123456  0.0000
SPC            1    5960  123456  0.0000
SPC            1    5961  123456  0.0000
SPC            1    5962  123456  0.0000
SPC            1    5963  123456  0.0000
SPC            1    5964  123456  0.0000
SPC            1    5965  123456  0.0000
SPC            1    5966  123456  0.0000
SPC            1    5967  123456  0.0000
SPC            1    5968  123456  0.0000
SPC            1    5969  123456  0.0000
SPC            1    5970  123456  0.0000
SPC            1    5971  123456  0.0000
SPC            1    5972  123456  0.0000
SPC            1    5973  123456  0.0000
SPC            1    5974  123456  0.0000
SPC            1    5975  123456  0.0000
SPC            1    5976  123456  0.0000
SPC            1    5977  123456  0.0000
SPC            1    5978  123456  0.0000
SPC            1    5979  123456  0.0000
SPC            1    5980  123456  0.0000
SPC            1    5981  123456  0.0000
SPC            1    5982  123456  0.0000
SPC            1    5983  123456  0.0000
SPC            1    5984  123456  0.0000
SPC            1    5985  123456  0.0000
SPC            1    5986  123456  0.0000
SPC            1    5987  123456  0.0000
SPC            1    5988  123456  0.0000
SPC            1    5989  123456  0.0000
SPC            1    5990  123456  0.0000
SPC            1    5991  123456  0.0000
SPC            1    5992  123456  0.0000
SPC            1    5993  123456  0.0000
SPC            1    5994  123456  0.0000
SPC            1    5995  123456  0.0000
SPC            1    5996  123456  0.0000
SPC            1    5997  123456  0.0000
SPC            1    5998  123456  0.0000
SPC            1    5999  123456  0.0000
SPC            1    6000  123456  0.0000
SPC            1    6001  123456  0.0000
SPC            1    6002  123456  0.0000
SPC            1    6003  123456  0.0000
SPC            1    6004  123456  0.0000
SPC            1    6005  123456  0.0000
SPC            1    6006  123456  0.0000
SPC            1    6007  123456  0.0000
SPC            1    6008  123456  0.0000
SPC            1    6009  123456  0.0000
SPC            1    6010  123456  0.0000
SPC            1    6011  123456  0.0000
SPC            1    6012  123456  0.0000
SPC            1    6013  123456  0.0000
SPC            1    6014  123456  0.0000
SPC            1    6015  123456  0.0000
SPC            1    6016  123456  0.0000
SPC            1    6017  123456  0.0000
SPC            1    6018  123456  0.0000
SPC            1    6999  123456  0.0000
SPC            1    7000  123456  0.0000
SPC            1    7001  123456  0.0000
SPC            1    7002  123456  0.0000
SPC            1    7003  123456  0.0000
SPC            1    7004  123456  0.0000
SPC            1    7005  123456  0.0000
SPC            1    7006  123456  0.0000
SPC            1    7007  123456  0.0000
SPC            1    7008  123456  0.0000
SPC            1    7009  123456  0.0000
SPC            1    7010  123456  0.0000
SPC            1    7011  123456  0.0000
SPC            1    7012  123456  0.0000
SPC            1    7013  123456  0.0000
SPC            1    7014  123456  0.0000
SPC            1    7015  123456  0.0000
SPC            1    7016  123456  0.0000
SPC            1    7017  123456  0.0000
SPC            1    7018  123456  0.0000
SPC            1    7019  123456  0.0000
SPC            1    7020  123456  0.0000
SPC            1    7021  123456  0.0000
SPC            1    7022  123456  0.0000
SPC            1    7023  123456  0.0000
SPC            1    7024  123456  0.0000
SPC            1    7025  123456  0.0000
SPC            1    7026  123456  0.0000
SPC            1    7027  123456  0.0000
SPC            1    7028  123456  0.0000
SPC            1    7029  123456  0.0000
SPC            1    7030  123456  0.0000
SPC            1    7031  123456  0.0000
SPC            1    7032  123456  0.0000
SPC            1    7033  123456  0.0000
SPC            1    7034  123456  0.0000
SPC            1    7035  123456  0.0000
SPC            1    7036  123456  0.0000
SPC            1    7037  123456  0.0000
SPC            1    7038  123456  0.0000
SPC            1    7039  123456  0.0000
SPC            1    7040  123456  0.0000
SPC            1    7041  123456  0.0000
SPC            1    7042  123456  0.0000
SPC            1    7043  123456  0.0000
SPC            1    7044  123456  0.0000
SPC            1    7045  123456  0.0000
SPC            1    7046  123456  0.0000
SPC            1    7047  123456  0.0000
SPC            1    7048  123456  0.0000
SPC            1    7049  123456  0.0000
SPC            1    7050  123456  0.0000
SPC            1    7051  123456  0.0000
SPC            1    7052  123456  0.0000
SPC            1    7053  123456  0.0000
SPC            1    7599  123456  0.0000
SPC            1    7600  123456  0.0000
SPC            1    7601  123456  0.0000
SPC            1    7602  123456  0.0000
SPC            1    7603  123456  0.0000
SPC            1    7604  123456  0.0000
SPC            1    7605  123456  0.0000
SPC            1    7606  123456  0.0000
SPC            1    7607  123456  0.0000
SPC            1    7608  123456  0.0000
SPC            1    7609  123456  0.0000
SPC            1    7610  123456  0.0000
SPC            1    7611  123456  0.0000
SPC            1    7612  123456  0.0000
SPC            1    7613  123456  0.0000
SPC            1    7614  123456  0.0000
SPC            1    7615  123456  0.0000
SPC            1    7616  123456  0.0000
SPC            1    7617  123456  0.0000
SPC            1    7618  123456  0.0000
SPC            1    7619  123456  0.0000
SPC            1    7620  123456  0.0000
SPC            1    7621  123456  0.0000
SPC            1    7622  123456  0.0000
SPC            1    7623  123456  0.0000
SPC            1    7624  123456  0.0000
SPC            1    7625  123456  0.0000
SPC            1    7626  123456  0.0000
SPC            1    7627  123456  0.0000
SPC            1    7628  123456  0.0000
SPC            1    7629  123456  0.0000
SPC            1    7630  123456  0.0000
SPC            1    7631  123456  0.0000
SPC            1    7632  123456  0.0000
SPC            1    7633  123456  0.0000
SPC            1    7634  123456  0.0000
SPC            1    7635  123456  0.0000
SPC            1    7636  123456  0.0000
SPC            1    7637  123456  0.0000
SPC            1    7638  123456  0.0000
SPC            1    7639  123456  0.0000
SPC            1    7640  123456  0.0000
SPC            1    7641  123456  0.0000
SPC            1    7642  123456  0.0000
SPC            1    7643  123456  0.0000
SPC            1    7644  123456  0.0000
SPC            1    7645  123456  0.0000
SPC            1    7646  123456  0.0000
SPC            1    7647  123456  0.0000
SPC            1    7648  123456  0.0000
SPC            1    7649  123456  0.0000
SPC            1    7650  123456  0.0000
SPC            1    7651  123456  0.0000
SPC            1    7652  123456  0.0000
SPC            1    7653  123456  0.0000
SPC            1    7654  123456  0.0000
SPC            1    7655  123456  0.0000
SPC            1    7656  123456  0.0000
SPC            1    7657  123456  0.0000
SPC            1    7658  123456  0.0000
SPC            1    7659  123456  0.0000
SPC            1    7660  123456  0.0000
SPC            1    7664  123456  0.0000
SPC            1    7665  123456  0.0000
SPC            1    7666  123456  0.0000
SPC            1    7667  123456  0.0000
SPC            1    7668  123456  0.0000
SPC            1    7669  123456  0.0000
SPC            1    7670  123456  0.0000
SPC            1    7671  123456  0.0000
SPC            1    7672  123456  0.0000
SPC            1    7673  123456  0.0000
SPC            1    7674  123456  0.0000
SPC            1    7675  123456  0.0000
SPC            1    7676  123456  0.0000
SPC            1    7677  123456  0.0000
SPC            1    7678  123456  0.0000
SPC            1    7679  123456  0.0000
SPC            1    7680  123456  0.0000
SPC            1    7681  123456  0.0000
SPC            1    7682  123456  0.0000
SPC            1    7683  123456  0.0000
SPC            1    7684  123456  0.0000
SPC            1    7685  123456  0.0000
SPC            1    7686  123456  0.0000
SPC            1    7687  123456  0.0000
SPC            1    7688  123456  0.0000
SPC            1    7689  123456  0.0000
SPC            1    7690  123456  0.0000
SPC            1    7691  123456  0.0000
SPC            1    7692  123456  0.0000
SPC            1    7693  123456  0.0000
SPC            1    7696  123456  0.0000
SPC            1    7697  123456  0.0000
SPC            1    7698  123456  0.0000
SPC            1    7699  123456  0.0000
SPC            1    7700  123456  0.0000
SPC            1    7701  123456  0.0000
SPC            1    7702  123456  0.0000
SPC            1    7703  123456  0.0000
SPC            1    7704  123456  0.0000
SPC            1    7705  123456  0.0000
SPC            1    7706  123456  0.0000
SPC            1    7707  123456  0.0000
SPC            1    7708  123456  0.0000
SPC            1    7711  123456  0.0000
SPC            1    7712  123456  0.0000
SPC            1    7713  123456  0.0000
SPC            1    7714  123456  0.0000
SPC            1    7715  123456  0.0000
SPC            1    7716  123456  0.0000
SPC            1    7717  123456  0.0000
SPC            1    7718  123456  0.0000
SPC            1    7719  123456  0.0000
SPC            1    7720  123456  0.0000
SPC            1    7721  123456  0.0000
SPC            1    7722  123456  0.0000
SPC            1    7723  123456  0.0000
SPC            1    7724  123456  0.0000
SPC            1    7725  123456  0.0000
SPC            1    7726  123456  0.0000
SPC            1    7727  123456  0.0000
SPC            1    7728  123456  0.0000
SPC            1    7729  123456  0.0000
SPC            1    7730  123456  0.0000
SPC            1    7731  123456  0.0000
SPC            1    7732  123456  0.0000
SPC            1    7733  123456  0.0000
SPC            1    7734  123456  0.0000
SPC            1    7735  123456  0.0000
SPC            1    7736  123456  0.0000
SPC            1    7737  123456  0.0000
SPC            1    7738  123456  0.0000
SPC            1    7739  123456  0.0000
SPC            1    7740  123456  0.0000
SPC            1    7741  123456  0.0000
SPC            1    7742  123456  0.0000
SPC            1    7743  123456  0.0000
SPC            1    7744  123456  0.0000
SPC            1    7745  123456  0.0000
SPC            1    7746  123456  0.0000
SPC            1    7747  123456  0.0000
SPC            1    7748  123456  0.0000
SPC            1    7749  123456  0.0000
SPC            1    7750  123456  0.0000
SPC            1    7751  123456  0.0000
SPC            1    7752  123456  0.0000
SPC            1    7753  123456  0.0000
SPC            1    7754  123456  0.0000
SPC            1    7812  123456  0.0000
SPC            1    7813  123456  0.0000
SPC            1    7814  123456  0.0000
SPC            1    7815  123456  0.0000
SPC            1    7816  123456  0.0000
SPC            1    7817  123456  0.0000
SPC            1    7818  123456  0.0000
SPC            1    7819  123456  0.0000
SPC            1    7820  123456  0.0000
SPC            1    7821  123456  0.0000
SPC            1    7822  123456  0.0000
SPC            1    7823  123456  0.0000
SPC            1    7824  123456  0.0000
SPC            1    7825  123456  0.0000
SPC            1    7826  123456  0.0000
SPC            1    7827  123456  0.0000
SPC            1    7828  123456  0.0000
SPC            1    7829  123456  0.0000
SPC            1    7830  123456  0.0000
SPC            1    7831  123456  0.0000
SPC            1    7832  123456  0.0000
SPC            1    7833  123456  0.0000
SPC            1    7834  123456  0.0000
SPC            1    7835  123456  0.0000
SPC            1    7836  123456  0.0000
SPC            1    7837  123456  0.0000
SPC            1    7838  123456  0.0000
SPC            1    7839  123456  0.0000
SPC            1    7840  123456  0.0000
SPC            1    7841  123456  0.0000
SPC            1    7842  123456  0.0000
SPC            1    7843  123456  0.0000
SPC            1    7844  123456  0.0000
SPC            1    8118  123456  0.0000
SPC            1    8119  123456  0.0000
SPC            1    8120  123456  0.0000
SPC            1    8121  123456  0.0000
SPC            1    8122  123456  0.0000
SPC            1    8123  123456  0.0000
SPC            1    8124  123456  0.0000
SPC            1    8125  123456  0.0000
SPC            1    8126  123456  0.0000
SPC            1    8127  123456  0.0000
SPC            1    8128  123456  0.0000
SPC            1    8129  123456  0.0000
SPC            1    8130  123456  0.0000
SPC            1    8131  123456  0.0000
SPC            1    8132  123456  0.0000
SPC            1    8133  123456  0.0000
SPC            1    8134  123456  0.0000
SPC            1    8135  123456  0.0000
SPC            1    8136  123456  0.0000
SPC            1    8137  123456  0.0000
SPC            1    8138  123456  0.0000
SPC            1    8139  123456  0.0000
SPC            1    8140  123456  0.0000
SPC            1    8141  123456  0.0000
SPC            1    8142  123456  0.0000
SPC            1    8143  123456  0.0000
SPC            1    8144  123456  0.0000
SPC            1    8145  123456  0.0000
SPC            1    8146  123456  0.0000
SPC            1    8147  123456  0.0000
SPC            1    8148  123456  0.0000
SPC            1    8149  123456  0.0000
SPC            1    8150  123456  0.0000
SPC            1    8151  123456  0.0000
SPC            1    8152  123456  0.0000
SPC            1    8153  123456  0.0000
SPC            1    8154  123456  0.0000
SPC            1    8155  123456  0.0000
SPC            1    8156  123456  0.0000
SPC            1    8157  123456  0.0000
SPC            1    8158  123456  0.0000
SPC            1    8159  123456  0.0000
SPC            1    8160  123456  0.0000
SPC            1    8161  123456  0.0000
SPC            1    8162  123456  0.0000
SPC            1    8163  123456  0.0000
SPC            1    8164  123456  0.0000
SPC            1    8165  123456  0.0000
SPC            1    8166  123456  0.0000
SPC            1    8167  123456  0.0000
SPC            1    8168  123456  0.0000
SPC            1    8169  123456  0.0000
SPC            1    8170  123456  0.0000
SPC            1    8171  123456  0.0000
SPC            1    8172  123456  0.0000
SPC            1    8175  123456  0.0000
SPC            1    8176  123456  0.0000
SPC            1    8177  123456  0.0000
SPC            1    8178  123456  0.0000
SPC            1    8179  123456  0.0000
SPC            1    8180  123456  0.0000
SPC            1    8181  123456  0.0000
SPC            1    8182  123456  0.0000
SPC            1    8183  123456  0.0000
SPC            1    8184  123456  0.0000
SPC            1    8185  123456  0.0000
SPC            1    8186  123456  0.0000
SPC            1    8187  123456  0.0000
SPC            1    8188  123456  0.0000
$*  NX Load and Constraint: Torque(1)
FORCE          2    7108       0 6926.30-0.057090.998369  0.0000
FORCE          2    7109       0 6926.45-0.057090.998369  0.0000
FORCE          2    7110       0 6926.43-0.113990.993482  0.0000
FORCE          2    7111       0 6926.47-0.057090.998369  0.0000
FORCE          2    7112       0 6926.46-0.113990.993482  0.0000
FORCE          2    7113       0 6926.50-0.170530.985353  0.0000
FORCE          2    7114       0 6926.46-0.226500.974012  0.0000
FORCE          2    7115       0 6926.33-0.170520.985354  0.0000
FORCE          2    7116       0 6926.50-0.281740.959492  0.0000
FORCE          2    7117       0 6926.42-0.336050.941843  0.0000
FORCE          2    7118       0 6926.36-0.281730.959494  0.0000
FORCE          2    7119       0 6926.48-0.389270.921123  0.0000
FORCE          2    7120       0 6926.41-0.441220.897397  0.0000
FORCE          2    7121       0 6926.46-0.389270.921124  0.0000
FORCE          2    7122       0 6926.44-0.491730.870746  0.0000
FORCE          2    7123       0 6926.43-0.540650.841251  0.0000
FORCE          2    7124       0 6926.61-0.491730.870746  0.0000
FORCE          2    7125       0 6926.41-0.587790.809016  0.0000
FORCE          2    7126       0 6926.42-0.633020.774137  0.0000
FORCE          2    7127       0 6926.63-0.587790.809016  0.0000
FORCE          2    7128       0 6926.38-0.676180.736739  0.0000
FORCE          2    7129       0 6926.39-0.717140.696932  0.0000
FORCE          2    7130       0 6926.58-0.676180.736739  0.0000
FORCE          2    7131       0 6926.41-0.755750.654858  0.0000
FORCE          2    7132       0 6926.43-0.791910.610642  0.0000
FORCE          2    7133       0 6926.59-0.755750.654858  0.0000
FORCE          2    7134       0 6926.43-0.825470.564439  0.0000
FORCE          2    7135       0 6926.47-0.856350.516391  0.0000
FORCE          2    7136       0 6926.63-0.825480.564439  0.0000
FORCE          2    7137       0 6926.40-0.884440.466662  0.0000
FORCE          2    7138       0 6926.48-0.909630.415409  0.0000
FORCE          2    7139       0 6926.58-0.884440.466661  0.0000
FORCE          2    7140       0 6926.37-0.931870.362801  0.0000
FORCE          2    7141       0 6926.46-0.951060.309013  0.0000
FORCE          2    7142       0 6926.42-0.931870.362799  0.0000
FORCE          2    7143       0 6926.44-0.967150.254210  0.0000
FORCE          2    7144       0 6926.44-0.980080.198586  0.0000
FORCE          2    7145       0 6926.34-0.967150.254208  0.0000
FORCE          2    7146       0 6926.46-0.989820.142305  0.0000
FORCE          2    7147       0 6925.56-0.996330.085569  0.0000
FORCE          2    7148       0 6926.32-0.989820.142304  0.0000
FORCE          2    7149       0 6924.73-0.999590.028561  0.0000
FORCE          2    7150       0 6925.58-0.99959-0.02853  0.0000
FORCE          2    7151       0 6924.83-0.999590.028562  0.0000
FORCE          2    7152       0 6926.48-0.99633-0.08556  0.0000
FORCE          2    7153       0 6926.46-0.98982-0.14229  0.0000
FORCE          2    7154       0 6926.31-0.99633-0.08555  0.0000
FORCE          2    7155       0 6926.50-0.98009-0.19857  0.0000
FORCE          2    7156       0 6926.45-0.96715-0.25420  0.0000
FORCE          2    7157       0 6926.33-0.98009-0.19857  0.0000
FORCE          2    7158       0 6926.50-0.95106-0.30900  0.0000
FORCE          2    7159       0 6926.41-0.93187-0.36279  0.0000
FORCE          2    7160       0 6926.37-0.95106-0.30899  0.0000
FORCE          2    7161       0 6926.47-0.90964-0.41540  0.0000
FORCE          2    7162       0 6926.42-0.88444-0.46665  0.0000
FORCE          2    7163       0 6926.50-0.90964-0.41539  0.0000
FORCE          2    7164       0 6926.43-0.85636-0.51638  0.0000
FORCE          2    7165       0 6926.43-0.82548-0.56443  0.0000
FORCE          2    7166       0 6926.62-0.85636-0.51638  0.0000
FORCE          2    7167       0 6926.40-0.79191-0.61063  0.0000
FORCE          2    7168       0 6926.41-0.75576-0.65485  0.0000
FORCE          2    7169       0 6926.62-0.79191-0.61063  0.0000
FORCE          2    7170       0 6926.38-0.71714-0.69692  0.0000
FORCE          2    7171       0 6926.39-0.67618-0.73673  0.0000
FORCE          2    7172       0 6926.57-0.71714-0.69692  0.0000
FORCE          2    7173       0 6926.42-0.63303-0.77413  0.0000
FORCE          2    7174       0 6926.45-0.58780-0.80901  0.0000
FORCE          2    7175       0 6926.61-0.63303-0.77413  0.0000
FORCE          2    7176       0 6926.43-0.54065-0.84124  0.0000
FORCE          2    7177       0 6926.48-0.49174-0.87074  0.0000
FORCE          2    7178       0 6926.63-0.54065-0.84125  0.0000
FORCE          2    7179       0 6926.39-0.44123-0.89739  0.0000
FORCE          2    7180       0 6926.47-0.38928-0.92112  0.0000
FORCE          2    7181       0 6926.55-0.44123-0.89739  0.0000
FORCE          2    7182       0 6926.38-0.33606-0.94184  0.0000
FORCE          2    7183       0 6926.46-0.28175-0.95949  0.0000
FORCE          2    7184       0 6926.40-0.33606-0.94184  0.0000
FORCE          2    7185       0 6926.45-0.22651-0.97401  0.0000
FORCE          2    7186       0 6926.44-0.17054-0.98535  0.0000
FORCE          2    7187       0 6926.34-0.22651-0.97401  0.0000
FORCE          2    7188       0 6926.46-0.11400-0.99348  0.0000
FORCE          2    7189       0 6926.43-0.05710-0.99837  0.0000
FORCE          2    7190       0 6926.32-0.11400-0.99348  0.0000
FORCE          2    7191       0 6926.45-1.036-5-1.00000  0.0000
FORCE          2    7192       0 6926.440.057075-0.99837  0.0000
FORCE          2    7193       0 6926.29-1.416-5-1.00000  0.0000
FORCE          2    7194       0 6926.490.113982-0.99348  0.0000
FORCE          2    7195       0 6926.470.170509-0.98536  0.0000
FORCE          2    7196       0 6926.320.113974-0.99348  0.0000
FORCE          2    7197       0 6926.510.226487-0.97401  0.0000
FORCE          2    7198       0 6926.440.281721-0.95950  0.0000
FORCE          2    7199       0 6926.340.226479-0.97402  0.0000
FORCE          2    7200       0 6926.490.336039-0.94185  0.0000
FORCE          2    7201       0 6926.400.389260-0.92113  0.0000
FORCE          2    7202       0 6926.390.336033-0.94185  0.0000
FORCE          2    7203       0 6926.460.441209-0.89740  0.0000
FORCE          2    7204       0 6926.430.491725-0.87075  0.0000
FORCE          2    7205       0 6926.550.441208-0.89741  0.0000
FORCE          2    7206       0 6926.430.540630-0.84126  0.0000
FORCE          2    7207       0 6926.430.587779-0.80902  0.0000
FORCE          2    7208       0 6926.630.540630-0.84126  0.0000
FORCE          2    7209       0 6926.390.633003-0.77415  0.0000
FORCE          2    7210       0 6926.400.676170-0.73675  0.0000
FORCE          2    7211       0 6926.610.633004-0.77415  0.0000
FORCE          2    7212       0 6926.390.717124-0.69695  0.0000
FORCE          2    7213       0 6926.400.755745-0.65487  0.0000
FORCE          2    7214       0 6926.570.717124-0.69695  0.0000
FORCE          2    7215       0 6926.430.791896-0.61066  0.0000
FORCE          2    7216       0 6926.460.825468-0.56445  0.0000
FORCE          2    7217       0 6926.620.791897-0.61066  0.0000
FORCE          2    7218       0 6926.430.856344-0.51641  0.0000
FORCE          2    7219       0 6926.480.884430-0.46667  0.0000
FORCE          2    7220       0 6926.620.856345-0.51640  0.0000
FORCE          2    7221       0 6926.370.909629-0.41542  0.0000
FORCE          2    7222       0 6926.470.931861-0.36282  0.0000
FORCE          2    7223       0 6926.500.909630-0.41542  0.0000
FORCE          2    7224       0 6926.400.951055-0.30902  0.0000
FORCE          2    7225       0 6926.450.967144-0.25423  0.0000
FORCE          2    7226       0 6926.370.951055-0.30902  0.0000
FORCE          2    7227       0 6926.450.980082-0.19860  0.0000
FORCE          2    7228       0 6926.430.989820-0.14232  0.0000
FORCE          2    7229       0 6926.330.980082-0.19859  0.0000
FORCE          2    7230       0 6926.460.996331-0.08558  0.0000
FORCE          2    7231       0 6926.430.999592-0.02856  0.0000
FORCE          2    7232       0 6926.310.996331-0.08558  0.0000
FORCE          2    7233       0 6926.460.9995920.028553  0.0000
FORCE          2    7234       0 6926.450.9963320.085568  0.0000
FORCE          2    7235       0 6926.290.9995920.028548  0.0000
FORCE          2    7236       0 6926.500.9898220.142312  0.0000
FORCE          2    7237       0 6926.460.9800840.198585  0.0000
FORCE          2    7238       0 6926.320.9898230.142304  0.0000
FORCE          2    7239       0 6926.500.9671480.254216  0.0000
FORCE          2    7240       0 6926.430.9510580.309013  0.0000
FORCE          2    7241       0 6926.340.9671500.254208  0.0000
FORCE          2    7242       0 6926.490.9318660.362803  0.0000
FORCE          2    7243       0 6926.400.9096330.415412  0.0000
FORCE          2    7244       0 6926.420.9318670.362799  0.0000
FORCE          2    7245       0 6926.450.8844360.466661  0.0000
FORCE          2    7246       0 6926.430.8563500.516396  0.0000
FORCE          2    7247       0 6926.580.8844360.466661  0.0000
FORCE          2    7248       0 6926.420.8254750.564438  0.0000
FORCE          2    7249       0 6926.420.7919030.610647  0.0000
FORCE          2    7250       0 6926.630.8254750.564439  0.0000
FORCE          2    7251       0 6926.390.7557520.654858  0.0000
FORCE          2    7252       0 6926.390.7171320.696938  0.0000
FORCE          2    7253       0 6926.590.7557520.654858  0.0000
FORCE          2    7254       0 6926.400.6761770.736739  0.0000
FORCE          2    7255       0 6926.420.6330120.774142  0.0000
FORCE          2    7256       0 6926.580.6761770.736739  0.0000
FORCE          2    7257       0 6926.430.5877870.809015  0.0000
FORCE          2    7258       0 6926.470.5406400.841254  0.0000
FORCE          2    7259       0 6926.630.5877870.809016  0.0000
FORCE          2    7260       0 6926.420.4917340.870745  0.0000
FORCE          2    7261       0 6926.480.4412210.897398  0.0000
FORCE          2    7262       0 6926.610.4917330.870746  0.0000
FORCE          2    7263       0 6926.360.3892700.921124  0.0000
FORCE          2    7264       0 6926.470.3360520.941843  0.0000
FORCE          2    7265       0 6926.460.3892680.921124  0.0000
FORCE          2    7266       0 6926.420.2817320.959493  0.0000
FORCE          2    7267       0 6926.450.2265000.974011  0.0000
FORCE          2    7268       0 6926.360.2817290.959494  0.0000
FORCE          2    7269       0 6926.460.1705200.985354  0.0000
FORCE          2    7270       0 6926.430.1139930.993482  0.0000
FORCE          2    7271       0 6926.330.1705190.985354  0.0000
FORCE          2    7272       0 6926.450.0570850.998369  0.0000
FORCE          2    7273       0 6926.300.0570870.998369  0.0000
FORCE          2    7274       0 6926.470.0570930.998369  0.0000
FORCE          2    7275       0 6926.460.1139920.993482  0.0000
FORCE          2    7276       0 6926.500.1705270.985353  0.0000
FORCE          2    7277       0 6926.460.2264980.974012  0.0000
FORCE          2    7278       0 6926.500.2817360.959492  0.0000
FORCE          2    7279       0 6926.420.3360520.941843  0.0000
FORCE          2    7280       0 6926.480.3892720.921123  0.0000
FORCE          2    7281       0 6926.410.4412250.897397  0.0000
FORCE          2    7282       0 6926.440.4917330.870746  0.0000
FORCE          2    7283       0 6926.430.5406450.841251  0.0000
FORCE          2    7284       0 6926.410.5877870.809016  0.0000
FORCE          2    7285       0 6926.420.6330170.774137  0.0000
FORCE          2    7286       0 6926.380.6761770.736739  0.0000
FORCE          2    7287       0 6926.390.7171370.696932  0.0000
FORCE          2    7288       0 6926.410.7557520.654858  0.0000
FORCE          2    7289       0 6926.430.7919070.610642  0.0000
FORCE          2    7290       0 6926.430.8254750.564439  0.0000
FORCE          2    7291       0 6926.470.8563530.516391  0.0000
FORCE          2    7292       0 6926.400.8844360.466662  0.0000
FORCE          2    7293       0 6926.480.9096350.415409  0.0000
FORCE          2    7294       0 6926.370.9318670.362801  0.0000
FORCE          2    7295       0 6926.460.9510580.309013  0.0000
FORCE          2    7296       0 6926.440.9671490.254210  0.0000
FORCE          2    7297       0 6926.440.9800830.198586  0.0000
FORCE          2    7298       0 6926.460.9898230.142305  0.0000
FORCE          2    7299       0 6926.430.9963320.085569  0.0000
FORCE          2    7300       0 6926.450.9995920.028545  0.0000
FORCE          2    7301       0 6926.440.999592-0.02856  0.0000
FORCE          2    7302       0 6926.480.996331-0.08559  0.0000
FORCE          2    7303       0 6926.460.989820-0.14232  0.0000
FORCE          2    7304       0 6926.500.980080-0.19860  0.0000
FORCE          2    7305       0 6926.450.967145-0.25423  0.0000
FORCE          2    7306       0 6926.500.951053-0.30903  0.0000
FORCE          2    7307       0 6926.410.931860-0.36282  0.0000
FORCE          2    7308       0 6926.470.909629-0.41542  0.0000
FORCE          2    7309       0 6926.420.884428-0.46668  0.0000
FORCE          2    7310       0 6926.430.856345-0.51640  0.0000
FORCE          2    7311       0 6926.430.825465-0.56445  0.0000
FORCE          2    7312       0 6926.400.791897-0.61066  0.0000
FORCE          2    7313       0 6926.410.755741-0.65487  0.0000
FORCE          2    7314       0 6926.380.717124-0.69695  0.0000
FORCE          2    7315       0 6926.390.676164-0.73675  0.0000
FORCE          2    7316       0 6926.420.633004-0.77415  0.0000
FORCE          2    7317       0 6926.450.587773-0.80903  0.0000
FORCE          2    7318       0 6926.430.540631-0.84126  0.0000
FORCE          2    7319       0 6926.480.491720-0.87075  0.0000
FORCE          2    7320       0 6926.390.441209-0.89740  0.0000
FORCE          2    7321       0 6926.470.389258-0.92113  0.0000
FORCE          2    7322       0 6926.380.336036-0.94185  0.0000
FORCE          2    7323       0 6926.460.281722-0.95950  0.0000
FORCE          2    7324       0 6926.450.226481-0.97402  0.0000
FORCE          2    7325       0 6926.440.170510-0.98536  0.0000
FORCE          2    7326       0 6926.460.113975-0.99348  0.0000
FORCE          2    7327       0 6926.430.057075-0.99837  0.0000
FORCE          2    7328       0 6926.45-1.798-5-1.00000  0.0000
FORCE          2    7329       0 6926.44-0.05710-0.99837  0.0000
FORCE          2    7330       0 6926.49-0.11401-0.99348  0.0000
FORCE          2    7331       0 6926.47-0.17054-0.98535  0.0000
FORCE          2    7332       0 6926.51-0.22651-0.97401  0.0000
FORCE          2    7333       0 6926.44-0.28175-0.95949  0.0000
FORCE          2    7334       0 6926.49-0.33607-0.94184  0.0000
FORCE          2    7335       0 6926.40-0.38929-0.92112  0.0000
FORCE          2    7336       0 6926.46-0.44123-0.89739  0.0000
FORCE          2    7337       0 6926.43-0.49175-0.87074  0.0000
FORCE          2    7338       0 6926.43-0.54065-0.84125  0.0000
FORCE          2    7339       0 6926.43-0.58780-0.80901  0.0000
FORCE          2    7340       0 6926.39-0.63303-0.77413  0.0000
FORCE          2    7341       0 6926.40-0.67619-0.73673  0.0000
FORCE          2    7342       0 6926.39-0.71714-0.69692  0.0000
FORCE          2    7343       0 6926.40-0.75576-0.65484  0.0000
FORCE          2    7344       0 6926.43-0.79191-0.61063  0.0000
FORCE          2    7345       0 6926.46-0.82548-0.56442  0.0000
FORCE          2    7346       0 6926.43-0.85636-0.51638  0.0000
FORCE          2    7347       0 6926.48-0.88444-0.46665  0.0000
FORCE          2    7348       0 6926.37-0.90964-0.41540  0.0000
FORCE          2    7349       0 6926.47-0.93187-0.36279  0.0000
FORCE          2    7350       0 6926.40-0.95106-0.30900  0.0000
FORCE          2    7351       0 6926.45-0.96715-0.25420  0.0000
FORCE          2    7352       0 6926.45-0.98009-0.19857  0.0000
FORCE          2    7353       0 6926.43-0.98982-0.14230  0.0000
FORCE          2    7354       0 6926.46-0.99633-0.08555  0.0000
FORCE          2    7355       0 6925.33-0.99959-0.02853  0.0000
FORCE          2    7356       0 6924.75-0.999590.028558  0.0000
FORCE          2    7357       0 6925.84-0.996330.085568  0.0000
FORCE          2    7358       0 6926.50-0.989820.142312  0.0000
FORCE          2    7359       0 6926.46-0.980080.198585  0.0000
FORCE          2    7360       0 6926.50-0.967150.254216  0.0000
FORCE          2    7361       0 6926.43-0.951060.309013  0.0000
FORCE          2    7362       0 6926.49-0.931870.362803  0.0000
FORCE          2    7363       0 6926.40-0.909630.415412  0.0000
FORCE          2    7364       0 6926.45-0.884440.466661  0.0000
FORCE          2    7365       0 6926.43-0.856350.516396  0.0000
FORCE          2    7366       0 6926.42-0.825480.564438  0.0000
FORCE          2    7367       0 6926.42-0.791900.610647  0.0000
FORCE          2    7368       0 6926.39-0.755750.654858  0.0000
FORCE          2    7369       0 6926.39-0.717130.696938  0.0000
FORCE          2    7370       0 6926.40-0.676180.736739  0.0000
FORCE          2    7371       0 6926.42-0.633010.774142  0.0000
FORCE          2    7372       0 6926.43-0.587790.809015  0.0000
FORCE          2    7373       0 6926.47-0.540640.841254  0.0000
FORCE          2    7374       0 6926.42-0.491730.870745  0.0000
FORCE          2    7375       0 6926.48-0.441220.897398  0.0000
FORCE          2    7376       0 6926.36-0.389270.921124  0.0000
FORCE          2    7377       0 6926.47-0.336050.941843  0.0000
FORCE          2    7378       0 6926.42-0.281730.959493  0.0000
FORCE          2    7379       0 6926.45-0.226500.974011  0.0000
FORCE          2    7380       0 6926.46-0.170520.985354  0.0000
FORCE          2    7435       0 3463.34-0.989820.142308  0.0000
FORCE          2    7436       0 3462.44-0.999590.028560  0.0000
FORCE          2    7437       0 3463.09-0.85636-0.51638  0.0000
FORCE          2    7438       0 3463.09-0.79191-0.61063  0.0000
FORCE          2    7439       0 3463.30-0.99633-0.08555  0.0000
FORCE          2    7440       0 3463.14-0.90964-0.41540  0.0000
FORCE          2    7441       0 3463.28-0.98009-0.19857  0.0000
FORCE          2    7442       0 3463.23-0.95106-0.30900  0.0000
FORCE          2    7443       0 3463.33-0.967150.254213  0.0000
FORCE          2    7444       0 3463.17-0.884440.466663  0.0000
FORCE          2    7445       0 3463.24-0.931870.362803  0.0000
FORCE          2    7446       0 3463.16-0.389270.921123  0.0000
FORCE          2    7447       0 3463.10-0.491730.870745  0.0000
FORCE          2    7448       0 3463.13-0.825470.564440  0.0000
FORCE          2    7449       0 3463.11-0.755750.654858  0.0000
FORCE          2    7450       0 3463.09-0.587790.809015  0.0000
FORCE          2    7451       0 3463.10-0.676180.736739  0.0000
FORCE          2    7452       0 3463.25-0.281730.959493  0.0000
FORCE          2    7453       0 3463.100.6761770.736739  0.0000
FORCE          2    7454       0 3463.29-0.170520.985354  0.0000
FORCE          2    7455       0 3463.30-0.057090.998369  0.0000
FORCE          2    7456       0 3463.120.5877880.809015  0.0000
FORCE          2    7457       0 3463.150.4917350.870745  0.0000
FORCE          2    7458       0 3463.320.0570890.998369  0.0000
FORCE          2    7459       0 3463.220.3892720.921123  0.0000
FORCE          2    7460       0 3463.350.1705230.985354  0.0000
FORCE          2    7461       0 3463.320.2817340.959493  0.0000
FORCE          2    7462       0 3463.100.7557520.654858  0.0000
FORCE          2    7463       0 3463.330.996331-0.08558  0.0000
FORCE          2    7464       0 3463.090.8254740.564440  0.0000
FORCE          2    7465       0 3463.300.9995920.028549  0.0000
FORCE          2    7466       0 3463.110.8844350.466663  0.0000
FORCE          2    7467       0 3463.290.9898220.142308  0.0000
FORCE          2    7468       0 3463.190.9318660.362803  0.0000
FORCE          2    7469       0 3463.260.9671480.254213  0.0000
FORCE          2    7470       0 3463.350.980081-0.19860  0.0000
FORCE          2    7471       0 3463.300.951054-0.30903  0.0000
FORCE          2    7472       0 3463.210.336038-0.94185  0.0000
FORCE          2    7473       0 3463.120.441210-0.89740  0.0000
FORCE          2    7474       0 3463.140.856344-0.51641  0.0000
FORCE          2    7475       0 3463.200.909628-0.41542  0.0000
FORCE          2    7476       0 3463.120.791896-0.61066  0.0000
FORCE          2    7477       0 3463.090.540631-0.84126  0.0000
FORCE          2    7478       0 3463.090.633004-0.77415  0.0000
FORCE          2    7479       0 3463.100.717124-0.69695  0.0000
FORCE          2    7480       0 3463.270.226484-0.97401  0.0000
FORCE          2    7481       0 3463.31-1.417-5-1.00000  0.0000
FORCE          2    7482       0 3463.300.113978-0.99348  0.0000
FORCE          2    7483       0 3463.33-0.11401-0.99348  0.0000
FORCE          2    7484       0 3463.14-0.54065-0.84124  0.0000
FORCE          2    7485       0 3463.34-0.22651-0.97401  0.0000
FORCE          2    7486       0 3463.18-0.44124-0.89739  0.0000
FORCE          2    7487       0 3463.27-0.33606-0.94184  0.0000
FORCE          2    7488       0 3463.11-0.63303-0.77413  0.0000
FORCE          2    7489       0 3463.10-0.71714-0.69692  0.0000
FORCE          2    7544       0 3463.26-0.967150.254213  0.0000
FORCE          2    7545       0 3463.11-0.884440.466663  0.0000
FORCE          2    7546       0 3463.19-0.931870.362803  0.0000
FORCE          2    7547       0 3463.09-0.825470.564440  0.0000
FORCE          2    7548       0 3463.15-0.491730.870745  0.0000
FORCE          2    7549       0 3463.12-0.587790.809015  0.0000
FORCE          2    7550       0 3463.10-0.676180.736739  0.0000
FORCE          2    7551       0 3463.10-0.755750.654858  0.0000
FORCE          2    7552       0 3463.29-0.989820.142308  0.0000
FORCE          2    7553       0 3462.20-0.999590.028560  0.0000
FORCE          2    7554       0 3463.35-0.98009-0.19857  0.0000
FORCE          2    7555       0 3463.33-0.99633-0.08555  0.0000
FORCE          2    7556       0 3463.20-0.90964-0.41540  0.0000
FORCE          2    7557       0 3463.30-0.95106-0.30900  0.0000
FORCE          2    7558       0 3463.14-0.85636-0.51638  0.0000
FORCE          2    7559       0 3463.12-0.79191-0.61063  0.0000
FORCE          2    7560       0 3463.09-0.63303-0.77413  0.0000
FORCE          2    7561       0 3463.21-0.33606-0.94184  0.0000
FORCE          2    7562       0 3463.09-0.54065-0.84124  0.0000
FORCE          2    7563       0 3463.12-0.44124-0.89739  0.0000
FORCE          2    7564       0 3463.10-0.71714-0.69692  0.0000
FORCE          2    7565       0 3463.27-0.22651-0.97401  0.0000
FORCE          2    7566       0 3463.30-0.11401-0.99348  0.0000
FORCE          2    7567       0 3463.30-1.417-5-1.00000  0.0000
FORCE          2    7568       0 3463.330.113978-0.99348  0.0000
FORCE          2    7569       0 3463.340.226484-0.97401  0.0000
FORCE          2    7570       0 3463.270.336038-0.94185  0.0000
FORCE          2    7571       0 3463.090.856344-0.51641  0.0000
FORCE          2    7572       0 3463.140.909628-0.41542  0.0000
FORCE          2    7573       0 3463.090.791896-0.61066  0.0000
FORCE          2    7574       0 3463.180.441210-0.89740  0.0000
FORCE          2    7575       0 3463.140.540631-0.84126  0.0000
FORCE          2    7576       0 3463.110.633004-0.77415  0.0000
FORCE          2    7577       0 3463.100.717124-0.69695  0.0000
FORCE          2    7578       0 3463.230.951054-0.30903  0.0000
FORCE          2    7579       0 3463.280.980081-0.19860  0.0000
FORCE          2    7580       0 3463.300.996331-0.08558  0.0000
FORCE          2    7581       0 3463.090.5877880.809015  0.0000
FORCE          2    7582       0 3463.100.4917350.870745  0.0000
FORCE          2    7583       0 3463.250.2817340.959493  0.0000
FORCE          2    7584       0 3463.160.3892720.921123  0.0000
FORCE          2    7585       0 3463.110.7557520.654858  0.0000
FORCE          2    7586       0 3463.130.8254740.564440  0.0000
FORCE          2    7587       0 3463.310.9995920.028549  0.0000
FORCE          2    7588       0 3463.170.8844350.466663  0.0000
FORCE          2    7589       0 3463.340.9898220.142308  0.0000
FORCE          2    7590       0 3463.240.9318660.362803  0.0000
FORCE          2    7591       0 3463.330.9671480.254213  0.0000
FORCE          2    7592       0 3463.100.6761770.736739  0.0000
FORCE          2    7593       0 3463.300.0570890.998369  0.0000
FORCE          2    7594       0 3463.290.1705230.985354  0.0000
FORCE          2    7595       0 3463.35-0.170520.985354  0.0000
FORCE          2    7596       0 3463.32-0.057090.998369  0.0000
FORCE          2    7597       0 3463.22-0.389270.921123  0.0000
FORCE          2    7598       0 3463.32-0.281730.959493  0.0000
FORCE          2    7662       0 6926.43  0.00001.000000  0.0000
FORCE          2    7663       0 6926.43  0.00001.000000  0.0000
ENDDATA 7020051d
