$*$$$$$$$$$$$$$$$$$$$$$$$$$$$$$$$$$$$$$$$$$$$$$$$$$$$$$$$$$$$$$$$$$
$*
$*                    NX v8.5.0.23 TRANSLATOR
$*                    FOR NX NASTRAN VERSION 8.5
$*
$*             FEM FILE: C:\Users\100398864\Documents\UOIT\Concurrent Engineering Design\Lab\LAB4\Disc A_fem1.fem
$*             SIM FILE: C:\Users\100398864\Documents\UOIT\Concurrent Engineering Design\Lab\LAB4\Disc A_sim1.sim
$*        ANALYSIS TYPE: Structural
$*        SOLUTION NAME: Solution 1
$*        SOLUTION TYPE: SOL 101 Linear Statics - Global Constraints
$*
$*    SOLVER INPUT FILE: disc_a_sim1-solution_1.dat
$*        CREATION DATE: 30-Oct-2013
$*        CREATION TIME: 11:21:31
$*             HOSTNAME: UOSL13-R9ZGTMY
$*      NASTRAN LICENSE: Desktop Bundle
$*
$*                UNITS: mm (milli-newton)
$*                      ... LENGTH : mm
$*                      ... TIME   : sec
$*                      ... MASS   : kilogram (kg)
$*                      ... TEMPERATURE : deg Celsius
$*                      ... FORCE  : milli-newton
$*                      ... THERMAL ENERGY : mN-mm (micro-joule)
$*
$* IMPORTANT NOTE:
$*     This banner was generated by NX and altering this information
$*     may compromise the NX post processing of results.
$*
$*$$$$$$$$$$$$$$$$$$$$$$$$$$$$$$$$$$$$$$$$$$$$$$$$$$$$$$$$$$$$$$$$$
$*
$*$$$$$$$$$$$$$$$$$$$$$$$$$$$$$$$$$$$
$*
$* FILE MANAGEMENT
$*
$*$$$$$$$$$$$$$$$$$$$$$$$$$$$$$$$$$$$
$*
$*
$*$$$$$$$$$$$$$$$$$$$$$$$$$$$$$$$$$$$
$*
$* EXECUTIVE CONTROL
$*
$*$$$$$$$$$$$$$$$$$$$$$$$$$$$$$$$$$$$
$*
ID,NASTRAN,disc_a_sim1-solution_1
SOL 101
CEND
$*
$*$$$$$$$$$$$$$$$$$$$$$$$$$$$$$$$$$$$
$*
$* CASE CONTROL
$*
$*$$$$$$$$$$$$$$$$$$$$$$$$$$$$$$$$$$$
$*
ECHO = NONE
SPC = 1
OUTPUT
DISPLACEMENT(PLOT,REAL) = ALL
SPCFORCES(PLOT,REAL) = ALL
STRESS(PLOT,REAL,VONMISES,CENTER) = ALL
$*  NX Step: Subcase - Static Loads 1
SUBCASE 1
LABEL = Subcase - Static Loads 1
LOAD = 2
$*
$*$$$$$$$$$$$$$$$$$$$$$$$$$$$$$$$$$$$
$*
$* BULK DATA
$*
$*$$$$$$$$$$$$$$$$$$$$$$$$$$$$$$$$$$$
$*
BEGIN BULK
$*
$* PARAM CARDS
$*
PARAM      K6ROT100.0000
PARAM    OMACHPR     YES
PARAM       POST      -2
PARAM    POSTEXT     YES
PARAM    UNITSYS   MN-MM
$*
$* GRID CARDS
$*
GRID*               2610               08.7500000000E+010.0000000000E+00+
*       0.0000000000E+00               0
GRID*               2611               08.7500000000E+010.0000000000E+00+
*       2.0000000000E+01               0
GRID*               2612               01.5000000000E+010.0000000000E+00+
*       -1.000000000E+01               0
GRID*               2613               01.5000000000E+010.0000000000E+00+
*       3.0000000000E+01               0
GRID*               2192               08.3955580611E+012.4651700550E+01+
*       0.0000000000E+00               0
GRID*               2193               07.3609538346E+014.7306246012E+01+
*       0.0000000000E+00               0
GRID*               2194               05.7300058007E+016.6128309311E+01+
*       0.0000000000E+00               0
GRID*               2195               03.6348395817E+017.9592971276E+01+
*       0.0000000000E+00               0
GRID*               2196               01.2451987534E+018.6609431846E+01+
*       0.0000000000E+00               0
GRID*               2197               0-1.245076243E+018.6609632718E+01+
*       0.0000000000E+00               0
GRID*               2198               0-3.634726937E+017.9593488277E+01+
*       0.0000000000E+00               0
GRID*               2199               0-5.729910185E+016.6129099956E+01+
*       0.0000000000E+00               0
GRID*               2200               0-7.360888435E+014.7307300428E+01+
*       0.0000000000E+00               0
GRID*               2201               0-8.395524628E+012.4652893782E+01+
*       0.0000000000E+00               0
GRID*               2202               0-8.749996901E+011.2395740926E-03+
*       0.0000000000E+00               0
GRID*               2203               0-8.395594476E+01-2.465051507E+01+
*       0.0000000000E+00               0
GRID*               2204               0-7.361022467E+01-4.730521483E+01+
*       0.0000000000E+00               0
GRID*               2205               0-5.730097547E+01-6.612747646E+01+
*       0.0000000000E+00               0
GRID*               2206               0-3.634952450E+01-7.959245844E+01+
*       0.0000000000E+00               0
GRID*               2207               0-1.245321634E+01-8.660927990E+01+
*       0.0000000000E+00               0
GRID*               2208               01.2451987534E+01-8.660943185E+01+
*       0.0000000000E+00               0
GRID*               2209               03.6348395817E+01-7.959297128E+01+
*       0.0000000000E+00               0
GRID*               2210               05.7300058007E+01-6.612830931E+01+
*       0.0000000000E+00               0
GRID*               2211               07.3609538346E+01-4.730624601E+01+
*       0.0000000000E+00               0
GRID*               2212               08.3955580611E+01-2.465170055E+01+
*       0.0000000000E+00               0
GRID*               2213               04.7305726278E+01-7.360987694E+01+
*       0.0000000000E+00               0
GRID*               2214               0-6.195225916E-04-8.749998674E+01+
*       0.0000000000E+00               0
GRID*               2215               02.4651112072E+01-8.395577774E+01+
*       0.0000000000E+00               0
GRID*               2216               0-7.959321420E+01-3.634782674E+01+
*       0.0000000000E+00               0
GRID*               2217               0-6.612870533E+01-5.729958290E+01+
*       0.0000000000E+00               0
GRID*               2218               0-2.465229191E+01-8.395540066E+01+
*       0.0000000000E+00               0
GRID*               2219               0-4.730678069E+01-7.360922660E+01+
*       0.0000000000E+00               0
GRID*               2220               0-8.660953400E+01-1.245137620E+01+
*       0.0000000000E+00               0
GRID*               2221               0-8.660918120E+011.2453830115E+01+
*       0.0000000000E+00               0
GRID*               2222               0-7.959218433E+013.6350081852E+01+
*       0.0000000000E+00               0
GRID*               2223               0-4.730469510E+017.3610566933E+01+
*       0.0000000000E+00               0
GRID*               2224               0-6.612708181E+015.7301456488E+01+
*       0.0000000000E+00               0
GRID*               2225               08.2747504096E-048.7500000031E+01+
*       0.0000000000E+00               0
GRID*               2226               0-2.464991319E+018.3956099111E+01+
*       0.0000000000E+00               0
GRID*               2227               04.7305726278E+017.3609876941E+01+
*       0.0000000000E+00               0
GRID*               2228               02.4651112072E+018.3955777742E+01+
*       0.0000000000E+00               0
GRID*               2229               07.9592728788E+013.6348967366E+01+
*       0.0000000000E+00               0
GRID*               2230               06.6127887842E+015.7300515531E+01+
*       0.0000000000E+00               0
GRID*               2231               08.6609345018E+011.2452600416E+01+
*       0.0000000000E+00               0
GRID*               2232               08.6609345018E+01-1.245260042E+01+
*       0.0000000000E+00               0
GRID*               2233               07.9592728788E+01-3.634896737E+01+
*       0.0000000000E+00               0
GRID*               2234               06.6127887842E+01-5.730051553E+01+
*       0.0000000000E+00               0
GRID*               2235               08.3955580611E+01-2.465170055E+01+
*       2.0000000000E+01               0
GRID*               2236               07.3609538346E+01-4.730624601E+01+
*       2.0000000000E+01               0
GRID*               2237               05.7300058007E+01-6.612830931E+01+
*       2.0000000000E+01               0
GRID*               2238               03.6348395817E+01-7.959297128E+01+
*       2.0000000000E+01               0
GRID*               2239               01.2451987534E+01-8.660943185E+01+
*       2.0000000000E+01               0
GRID*               2240               0-1.245321634E+01-8.660927990E+01+
*       2.0000000000E+01               0
GRID*               2241               0-3.634952450E+01-7.959245844E+01+
*       2.0000000000E+01               0
GRID*               2242               0-5.730097547E+01-6.612747646E+01+
*       2.0000000000E+01               0
GRID*               2243               0-7.361022467E+01-4.730521483E+01+
*       2.0000000000E+01               0
GRID*               2244               0-8.395594476E+01-2.465051507E+01+
*       2.0000000000E+01               0
GRID*               2245               0-8.749996901E+011.2395740927E-03+
*       2.0000000000E+01               0
GRID*               2246               0-8.395524628E+012.4652893782E+01+
*       2.0000000000E+01               0
GRID*               2247               0-7.360888435E+014.7307300428E+01+
*       2.0000000000E+01               0
GRID*               2248               0-5.729910185E+016.6129099956E+01+
*       2.0000000000E+01               0
GRID*               2249               0-3.634726937E+017.9593488277E+01+
*       2.0000000000E+01               0
GRID*               2250               0-1.245076243E+018.6609632718E+01+
*       2.0000000000E+01               0
GRID*               2251               01.2451987534E+018.6609431846E+01+
*       2.0000000000E+01               0
GRID*               2252               03.6348395817E+017.9592971276E+01+
*       2.0000000000E+01               0
GRID*               2253               05.7300058007E+016.6128309311E+01+
*       2.0000000000E+01               0
GRID*               2254               07.3609538346E+014.7306246012E+01+
*       2.0000000000E+01               0
GRID*               2255               08.3955580611E+012.4651700550E+01+
*       2.0000000000E+01               0
GRID*               2256               0-8.660953400E+01-1.245137620E+01+
*       2.0000000000E+01               0
GRID*               2257               0-8.660918120E+011.2453830115E+01+
*       2.0000000000E+01               0
GRID*               2258               0-7.959321420E+01-3.634782674E+01+
*       2.0000000000E+01               0
GRID*               2259               0-6.612870533E+01-5.729958290E+01+
*       2.0000000000E+01               0
GRID*               2260               0-4.730678069E+01-7.360922660E+01+
*       2.0000000000E+01               0
GRID*               2261               0-2.465229191E+01-8.395540066E+01+
*       2.0000000000E+01               0
GRID*               2262               04.7305726278E+01-7.360987694E+01+
*       2.0000000000E+01               0
GRID*               2263               0-6.195225917E-04-8.749998674E+01+
*       2.0000000000E+01               0
GRID*               2264               02.4651112072E+01-8.395577774E+01+
*       2.0000000000E+01               0
GRID*               2265               06.6127887842E+01-5.730051553E+01+
*       2.0000000000E+01               0
GRID*               2266               07.9592728788E+01-3.634896737E+01+
*       2.0000000000E+01               0
GRID*               2267               08.6609345018E+01-1.245260042E+01+
*       2.0000000000E+01               0
GRID*               2268               08.6609345018E+011.2452600416E+01+
*       2.0000000000E+01               0
GRID*               2269               07.9592728788E+013.6348967366E+01+
*       2.0000000000E+01               0
GRID*               2270               06.6127887842E+015.7300515531E+01+
*       2.0000000000E+01               0
GRID*               2271               08.2747504098E-048.7500000031E+01+
*       2.0000000000E+01               0
GRID*               2272               0-2.464991319E+018.3956099111E+01+
*       2.0000000000E+01               0
GRID*               2273               04.7305726278E+017.3609876941E+01+
*       2.0000000000E+01               0
GRID*               2274               02.4651112072E+018.3955777742E+01+
*       2.0000000000E+01               0
GRID*               2275               0-4.730469510E+017.3610566933E+01+
*       2.0000000000E+01               0
GRID*               2276               0-6.612708181E+015.7301456488E+01+
*       2.0000000000E+01               0
GRID*               2277               0-7.959218433E+013.6350081852E+01+
*       2.0000000000E+01               0
GRID*               2316               0-5.421629510E+01-5.948523015E+00+
*       0.0000000000E+00               0
GRID*               2317               0-5.976040297E+01-3.652078214E+00+
*       0.0000000000E+00               0
GRID*               2318               0-6.054327774E+012.2961003780E+00+
*       0.0000000000E+00               0
GRID*               2319               0-5.578370473E+015.9485230373E+00+
*       0.0000000000E+00               0
GRID*               2320               0-5.023959655E+013.6520783581E+00+
*       0.0000000000E+00               0
GRID*               2321               0-4.905147692E+017.8370482420E-01+
*       0.0000000000E+00               0
GRID*               2322               0-5.270389963E+015.5432773656E+00+
*       0.0000000000E+00               0
GRID*               2323               0-5.865207834E+014.7604035449E+00+
*       0.0000000000E+00               0
GRID*               2324               0-6.094852308E+01-7.837048242E-01+
*       0.0000000000E+00               0
GRID*               2325               0-5.729610021E+01-5.543277432E+00+
*       0.0000000000E+00               0
GRID*               2326               0-5.134792152E+01-4.760403439E+00+
*       0.0000000000E+00               0
GRID*               2327               0-5.023959655E+013.6520783581E+00+
*       2.0000000000E+01               0
GRID*               2328               0-5.578370473E+015.9485230373E+00+
*       2.0000000000E+01               0
GRID*               2329               0-6.054327774E+012.2961003780E+00+
*       2.0000000000E+01               0
GRID*               2330               0-5.976040297E+01-3.652078214E+00+
*       2.0000000000E+01               0
GRID*               2331               0-5.421629510E+01-5.948523015E+00+
*       2.0000000000E+01               0
GRID*               2332               0-4.905147692E+017.8370482420E-01+
*       2.0000000000E+01               0
GRID*               2333               0-5.270389963E+015.5432773656E+00+
*       2.0000000000E+01               0
GRID*               2334               0-5.865207834E+014.7604035449E+00+
*       2.0000000000E+01               0
GRID*               2335               0-6.094852308E+01-7.837048242E-01+
*       2.0000000000E+01               0
GRID*               2336               0-5.729610021E+01-5.543277432E+00+
*       2.0000000000E+01               0
GRID*               2337               0-5.134792152E+01-4.760403439E+00+
*       2.0000000000E+01               0
GRID*               2360               03.9498760584E+016.3125227787E+00+
*       2.0000000000E+01               0
GRID*               2361               03.8906925474E+01-9.287144583E+00+
*       2.0000000000E+01               0
GRID*               2362               03.2391620281E+01-2.346876451E+01+
*       2.0000000000E+01               0
GRID*               2363               02.0945477171E+01-3.407765265E+01+
*       2.0000000000E+01               0
GRID*               2364               06.3102474166E+00-3.949912415E+01+
*       2.0000000000E+01               0
GRID*               2365               0-9.287161203E+00-3.890685677E+01+
*       2.0000000000E+01               0
GRID*               2366               0-2.346727748E+01-3.239269765E+01+
*       2.0000000000E+01               0
GRID*               2367               0-3.407783415E+01-2.094507646E+01+
*       2.0000000000E+01               0
GRID*               2368               0-3.949944969E+01-6.308208847E+00+
*       2.0000000000E+01               0
GRID*               2369               0-3.890729727E+019.2853150881E+00+
*       2.0000000000E+01               0
GRID*               2370               0-3.239147632E+012.3468963143E+01+
*       2.0000000000E+01               0
GRID*               2371               0-2.094480965E+013.4078063924E+01+
*       2.0000000000E+01               0
GRID*               2372               0-6.310083037E+003.9499150334E+01+
*       2.0000000000E+01               0
GRID*               2373               09.2853197390E+003.8907362370E+01+
*       2.0000000000E+01               0
GRID*               2374               02.3467379932E+013.2392623465E+01+
*       2.0000000000E+01               0
GRID*               2375               0-3.920337348E+011.4885531208E+00+
*       2.0000000000E+01               0
GRID*               2376               0-1.362744634E+013.6788607129E+01+
*       2.0000000000E+01               0
GRID*               2377               01.6697842643E+013.6348027869E+01+
*       2.0000000000E+01               0
GRID*               2378               0-3.678864192E+01-1.362664265E+01+
*       2.0000000000E+01               0
GRID*               2379               0-2.933713544E+01-2.719066567E+01+
*       2.0000000000E+01               0
GRID*               2380               02.6668548726E+01-2.877320858E+01+
*       2.0000000000E+01               0
GRID*               2381               03.9971162463E+01-1.517711315E+00+
*       2.0000000000E+01               0
GRID*               2382               03.5649272877E+01-1.637795455E+01+
*       2.0000000000E+01               0
GRID*               2383               0-1.669917842E+01-3.634745334E+01+
*       2.0000000000E+01               0
GRID*               2384               01.3627862294E+01-3.678838840E+01+
*       2.0000000000E+01               0
GRID*               2385               0-1.518898527E+00-3.997114699E+01+
*       2.0000000000E+01               0
GRID*               2386               03.7508759013E+011.3895679685E+01+
*       2.0000000000E+01               0
GRID*               2387               02.9334917845E+012.7193011807E+01+
*       2.0000000000E+01               0
GRID*               2388               01.5153972778E+003.9971250204E+01+
*       2.0000000000E+01               0
GRID*               2389               0-2.666814299E+012.8773513534E+01+
*       2.0000000000E+01               0
GRID*               2390               0-3.634847717E+011.6696939553E+01+
*       2.0000000000E+01               0
GRID*               2555               0-2.671629555E+01-5.357992032E+01+
*       0.0000000000E+00               0
GRID*               2556               0-3.226040345E+01-5.128347509E+01+
*       0.0000000000E+00               0
GRID*               2557               0-3.304327761E+01-4.533529631E+01+
*       0.0000000000E+00               0
GRID*               2558               0-2.828370456E+01-4.168287400E+01+
*       0.0000000000E+00               0
GRID*               2559               0-2.273959619E+01-4.397931869E+01+
*       0.0000000000E+00               0
GRID*               2560               0-2.155147695E+01-4.684769258E+01+
*       0.0000000000E+00               0
GRID*               2561               0-2.520389926E+01-4.208811956E+01+
*       0.0000000000E+00               0
GRID*               2562               0-3.115207839E+01-4.287099331E+01+
*       0.0000000000E+00               0
GRID*               2563               0-3.344852309E+01-4.841510157E+01+
*       0.0000000000E+00               0
GRID*               2564               0-2.979610074E+01-5.317467494E+01+
*       0.0000000000E+00               0
GRID*               2565               0-2.384792200E+01-5.239180069E+01+
*       0.0000000000E+00               0
GRID*               2338               0-2.671629555E+01-5.357992032E+01+
*       2.0000000000E+01               0
GRID*               2339               0-3.226040345E+01-5.128347509E+01+
*       2.0000000000E+01               0
GRID*               2340               0-3.304327761E+01-4.533529631E+01+
*       2.0000000000E+01               0
GRID*               2341               0-2.828370456E+01-4.168287400E+01+
*       2.0000000000E+01               0
GRID*               2342               0-2.273959619E+01-4.397931869E+01+
*       2.0000000000E+01               0
GRID*               2343               0-2.520389926E+01-4.208811956E+01+
*       2.0000000000E+01               0
GRID*               2344               0-3.115207839E+01-4.287099331E+01+
*       2.0000000000E+01               0
GRID*               2345               0-3.265184053E+01-4.830938570E+01+
*       2.0000000000E+01               0
GRID*               2346               0-2.948834950E+01-5.243169770E+01+
*       2.0000000000E+01               0
GRID*               2347               0-2.384792200E+01-5.239180069E+01+
*       2.0000000000E+01               0
GRID*               2348               0-2.155147695E+01-4.684769258E+01+
*       2.0000000000E+01               0
GRID*               2566               0-2.671629520E+014.1682874220E+01+
*       0.0000000000E+00               0
GRID*               2567               0-3.226040359E+014.3979318408E+01+
*       0.0000000000E+00               0
GRID*               2568               0-3.304327788E+014.9927497538E+01+
*       0.0000000000E+00               0
GRID*               2569               0-2.828370491E+015.3579920449E+01+
*       0.0000000000E+00               0
GRID*               2570               0-2.273959676E+015.1283475368E+01+
*       0.0000000000E+00               0
GRID*               2571               0-2.155147695E+014.8415101918E+01+
*       0.0000000000E+00               0
GRID*               2572               0-2.520389959E+015.3174675071E+01+
*       0.0000000000E+00               0
GRID*               2573               0-3.115207828E+015.2391800471E+01+
*       0.0000000000E+00               0
GRID*               2574               0-3.344852300E+014.6847692226E+01+
*       0.0000000000E+00               0
GRID*               2575               0-2.979610041E+014.2088119423E+01+
*       0.0000000000E+00               0
GRID*               2576               0-2.384792133E+014.2870993523E+01+
*       0.0000000000E+00               0
GRID*               2402               0-2.671629520E+014.1682874220E+01+
*       2.0000000000E+01               0
GRID*               2403               0-3.226040359E+014.3979318408E+01+
*       2.0000000000E+01               0
GRID*               2404               0-3.304327788E+014.9927497538E+01+
*       2.0000000000E+01               0
GRID*               2405               0-2.828370491E+015.3579920449E+01+
*       2.0000000000E+01               0
GRID*               2406               0-2.273959676E+015.1283475368E+01+
*       2.0000000000E+01               0
GRID*               2407               0-2.155147695E+014.8415101918E+01+
*       2.0000000000E+01               0
GRID*               2408               0-2.520389959E+015.3174675071E+01+
*       2.0000000000E+01               0
GRID*               2409               0-3.115207828E+015.2391800471E+01+
*       2.0000000000E+01               0
GRID*               2410               0-2.384792133E+014.2870993523E+01+
*       2.0000000000E+01               0
GRID*               2411               0-3.344852300E+014.6847692226E+01+
*       2.0000000000E+01               0
GRID*               2412               0-2.979610041E+014.2088119423E+01+
*       2.0000000000E+01               0
GRID*               2424               01.7935479606E+012.4758025652E+01+
*       2.6666666031E+01               0
GRID*               2425               07.0949613298E+002.9737235268E+01+
*       2.6666666031E+01               0
GRID*               2426               0-4.824042956E+003.0188903234E+01+
*       2.6666666031E+01               0
GRID*               2427               0-1.601059711E+012.6044237247E+01+
*       2.6666666031E+01               0
GRID*               2428               0-2.475784060E+011.7935747247E+01+
*       2.6666666031E+01               0
GRID*               2429               0-2.973710953E+017.0954810667E+00+
*       2.6666666031E+01               0
GRID*               2430               0-3.018905995E+01-4.823105278E+00+
*       2.6666666031E+01               0
GRID*               2431               0-2.604507626E+01-1.600919360E+01+
*       2.6666666031E+01               0
GRID*               2432               0-1.793569086E+01-2.475786679E+01+
*       2.6666666031E+01               0
GRID*               2433               0-7.096133332E+00-2.973695586E+01+
*       2.6666666031E+01               0
GRID*               2434               04.8243272972E+00-3.018886429E+01+
*       2.6666666031E+01               0
GRID*               2435               01.6010396296E+01-2.604436038E+01+
*       2.6666666031E+01               0
GRID*               2436               02.4758897747E+01-1.793428789E+01+
*       2.6666666031E+01               0
GRID*               2437               02.9737123022E+01-7.095428218E+00+
*       2.6666666031E+01               0
GRID*               2438               03.0188734631E+014.8251355599E+00+
*       2.6666666031E+01               0
GRID*               2439               02.8667343287E+011.0621915684E+01+
*       2.6666666031E+01               0
GRID*               2440               03.0549969215E+01-1.157754264E+00+
*       2.6666667436E+01               0
GRID*               2441               02.7248010385E+01-1.251485806E+01+
*       2.6666666031E+01               0
GRID*               2442               02.0784325949E+01-2.241990800E+01+
*       2.6666666031E+01               0
GRID*               2443               01.0417361796E+01-2.811661234E+01+
*       2.6666666031E+01               0
GRID*               2444               0-1.135903017E+00-2.996291007E+01+
*       2.6666666031E+01               0
GRID*               2445               0-1.251591210E+01-2.724741132E+01+
*       2.6666666031E+01               0
GRID*               2446               0-2.242080811E+01-2.078338282E+01+
*       2.6666666031E+01               0
GRID*               2447               0-2.866800690E+01-1.062011435E+01+
*       2.6666666031E+01               0
GRID*               2448               0-2.996308474E+011.1361878942E+00+
*       2.6666666031E+01               0
GRID*               2449               0-2.778119363E+011.2761146686E+01+
*       2.6666666031E+01               0
GRID*               2450               0-2.038421885E+012.1989992247E+01+
*       2.6666666031E+01               0
GRID*               2451               0-1.041732003E+012.8116570240E+01+
*       2.6666666031E+01               0
GRID*               2452               01.1354591867E+002.9963069251E+01+
*       2.6666666031E+01               0
GRID*               2453               01.2760990052E+012.7781264706E+01+
*       2.6666666031E+01               0
GRID*               2454               02.1990141613E+012.0383853677E+01+
*       2.6666666031E+01               0
GRID*               2455               02.6907374507E+01-1.260625228E+01+
*       -6.666666508E+00               0
GRID*               2456               02.9605638001E+012.5358141890E+00+
*       -6.666666440E+00               0
GRID*               2457               02.4371340463E+011.6998864223E+01+
*       -6.666666508E+00               0
GRID*               2458               01.2606099720E+012.6907416380E+01+
*       -6.666666508E+00               0
GRID*               2459               0-2.536906274E+002.9605539114E+01+
*       -6.666666508E+00               0
GRID*               2460               0-1.699964298E+012.4370812342E+01+
*       -6.666666508E+00               0
GRID*               2461               0-2.690735262E+011.2606299700E+01+
*       -6.666666508E+00               0
GRID*               2462               0-2.960562847E+01-2.535988569E+00+
*       -6.666666508E+00               0
GRID*               2463               0-2.437125832E+01-1.699899937E+01+
*       -6.666666508E+00               0
GRID*               2464               0-1.260610326E+01-2.690742636E+01+
*       -6.666666508E+00               0
GRID*               2465               02.5372370431E+00-2.960551969E+01+
*       -6.666666508E+00               0
GRID*               2466               02.1953637662E+01-1.848844318E+01+
*       -6.666666508E+00               0
GRID*               2467               02.9253354486E+01-5.212075719E+00+
*       -6.666666507E+00               0
GRID*               2468               02.7940136156E+011.0113026621E+01+
*       -6.666666508E+00               0
GRID*               2469               01.8488720092E+012.1953140301E+01+
*       -6.666666508E+00               0
GRID*               2470               05.2127428005E+002.9253229771E+01+
*       -6.666666508E+00               0
GRID*               2471               0-9.768274627E+002.6988175728E+01+
*       -6.666666508E+00               0
GRID*               2472               0-2.195349780E+011.8488556021E+01+
*       -6.666666508E+00               0
GRID*               2473               0-2.925333423E+015.2120451497E+00+
*       -6.666666508E+00               0
GRID*               2474               0-2.698844339E+01-9.767493970E+00+
*       -6.666666508E+00               0
GRID*               2475               0-1.914070452E+01-2.272790596E+01+
*       -6.666666508E+00               0
GRID*               2476               0-5.034433110E+00-2.825647303E+01+
*       -6.666666508E+00               0
GRID*               2477               01.0111652127E+01-2.794063258E+01+
*       -6.666666508E+00               0
GRID*               2524               02.5701861897E+012.8360621362E+00+
*       3.0000000000E+01               0
GRID*               2525               02.4831217781E+01-7.213813758E+00+
*       3.0000000000E+01               0
GRID*               2526               02.0181173245E+01-1.616625715E+01+
*       3.0000000000E+01               0
GRID*               2527               01.2458393803E+01-2.265866253E+01+
*       3.0000000000E+01               0
GRID*               2528               02.8371334239E+00-2.570166607E+01+
*       3.0000000000E+01               0
GRID*               2529               0-7.215738944E+00-2.483066435E+01+
*       3.0000000000E+01               0
GRID*               2530               0-1.616771514E+01-2.018004035E+01+
*       3.0000000000E+01               0
GRID*               2531               0-2.265942001E+01-1.245712090E+01+
*       3.0000000000E+01               0
GRID*               2532               0-2.570186190E+01-2.836062136E+00+
*       3.0000000000E+01               0
GRID*               2533               0-2.483121778E+017.2138137584E+00+
*       3.0000000000E+01               0
GRID*               2534               0-2.018117325E+011.6166257155E+01+
*       3.0000000000E+01               0
GRID*               2535               0-1.245839380E+012.2658662527E+01+
*       3.0000000000E+01               0
GRID*               2536               0-2.837133424E+002.5701666069E+01+
*       3.0000000000E+01               0
GRID*               2537               07.2157389435E+002.4830664349E+01+
*       3.0000000000E+01               0
GRID*               2538               01.6167715138E+012.0180040350E+01+
*       3.0000000000E+01               0
GRID*               2539               02.4180640955E+017.6465915158E+00+
*       3.0000000000E+01               0
GRID*               2540               02.5761300486E+01-2.232460365E+00+
*       3.0000000000E+01               0
GRID*               2541               02.2946756949E+01-1.191953381E+01+
*       3.0000000000E+01               0
GRID*               2542               01.6639341123E+01-1.979296457E+01+
*       3.0000000000E+01               0
GRID*               2543               07.7978890654E+00-2.465404773E+01+
*       3.0000000000E+01               0
GRID*               2544               0-2.232960892E+00-2.576126200E+01+
*       3.0000000000E+01               0
GRID*               2545               0-1.192001860E+01-2.294648657E+01+
*       3.0000000000E+01               0
GRID*               2546               0-1.979345926E+01-1.663869055E+01+
*       3.0000000000E+01               0
GRID*               2547               0-2.465435569E+01-7.796704011E+00+
*       3.0000000000E+01               0
GRID*               2548               0-2.576130049E+012.2324603654E+00+
*       3.0000000000E+01               0
GRID*               2549               0-2.294675695E+011.1919533810E+01+
*       3.0000000000E+01               0
GRID*               2550               0-1.631978352E+011.9412459841E+01+
*       3.0000000000E+01               0
GRID*               2551               0-7.647763614E+002.4180164298E+01+
*       3.0000000000E+01               0
GRID*               2552               02.1893027598E+002.5266165209E+01+
*       3.0000000000E+01               0
GRID*               2553               01.1920018598E+012.2946486572E+01+
*       3.0000000000E+01               0
GRID*               2554               01.9413567576E+011.6318580623E+01+
*       3.0000000000E+01               0
GRID*               2278               07.4999793669E+001.2990337728E+01+
*       -1.000000000E+01               0
GRID*               2279               0-7.499934270E+001.2990276676E+01+
*       -1.000000000E+01               0
GRID*               2280               0-1.499984416E+017.1054273576E-15+
*       -1.000000000E+01               0
GRID*               2281               0-7.499934270E+00-1.299027668E+01+
*       -1.000000000E+01               0
GRID*               2282               07.4999793669E+00-1.299033773E+01+
*       -1.000000000E+01               0
GRID*               2283               05.0391948547E-06-1.499991242E+01+
*       -1.000000000E+01               0
GRID*               2284               0-1.299025208E+01-7.499928563E+00+
*       -1.000000000E+01               0
GRID*               2285               0-1.299025208E+017.4999285633E+00+
*       -1.000000000E+01               0
GRID*               2286               01.2990369013E+01-7.499991296E+00+
*       -1.000000000E+01               0
GRID*               2287               05.0391948591E-061.4999912417E+01+
*       -1.000000000E+01               0
GRID*               2288               01.2990369013E+017.4999912957E+00+
*       -1.000000000E+01               0
GRID*               2289               07.4999793669E+001.2990337728E+01+
*       3.0000000000E+01               0
GRID*               2290               0-7.499934270E+001.2990276676E+01+
*       3.0000000000E+01               0
GRID*               2291               0-1.499984416E+017.1054273576E-15+
*       3.0000000000E+01               0
GRID*               2292               0-7.499934270E+00-1.299027668E+01+
*       3.0000000000E+01               0
GRID*               2293               07.4999793669E+00-1.299033773E+01+
*       3.0000000000E+01               0
GRID*               2294               05.0391948547E-06-1.499991242E+01+
*       3.0000000000E+01               0
GRID*               2295               0-1.299025208E+017.4999285633E+00+
*       3.0000000000E+01               0
GRID*               2296               0-1.299025208E+01-7.499928563E+00+
*       3.0000000000E+01               0
GRID*               2297               01.2990369013E+01-7.499991296E+00+
*       3.0000000000E+01               0
GRID*               2298               01.2990369013E+017.4999912957E+00+
*       3.0000000000E+01               0
GRID*               2299               05.0391948591E-061.4999912417E+01+
*       3.0000000000E+01               0
GRID*               2577               02.9055080457E+01-5.342637185E+01+
*       0.0000000000E+00               0
GRID*               2578               02.3258154272E+01-5.187483236E+01+
*       0.0000000000E+00               0
GRID*               2579               02.1704444976E+01-4.607848324E+01+
*       0.0000000000E+00               0
GRID*               2580               02.5944919705E+01-4.183642311E+01+
*       0.0000000000E+00               0
GRID*               2581               03.1741846562E+01-4.338796106E+01+
*       0.0000000000E+00               0
GRID*               2582               03.1743435196E+01-5.187324289E+01+
*       0.0000000000E+00               0
GRID*               2583               02.6156617364E+01-5.265060210E+01+
*       0.0000000000E+00               0
GRID*               2584               02.1705025832E+01-4.918647741E+01+
*       0.0000000000E+00               0
GRID*               2585               02.3256563969E+01-4.338955053E+01+
*       0.0000000000E+00               0
GRID*               2586               02.9052913953E+01-4.183584170E+01+
*       0.0000000000E+00               0
GRID*               2587               03.3294974077E+01-4.607631674E+01+
*       0.0000000000E+00               0
GRID*               2349               02.9055080457E+01-5.342637185E+01+
*       2.0000000000E+01               0
GRID*               2350               02.3258154272E+01-5.187483236E+01+
*       2.0000000000E+01               0
GRID*               2351               02.1704444976E+01-4.607848324E+01+
*       2.0000000000E+01               0
GRID*               2352               02.5944919705E+01-4.183642311E+01+
*       2.0000000000E+01               0
GRID*               2353               03.1741846562E+01-4.338796106E+01+
*       2.0000000000E+01               0
GRID*               2354               02.3256563969E+01-4.338955053E+01+
*       2.0000000000E+01               0
GRID*               2355               02.1705025832E+01-4.918647741E+01+
*       2.0000000000E+01               0
GRID*               2356               02.5947086205E+01-5.342695233E+01+
*       2.0000000000E+01               0
GRID*               2357               03.1743435196E+01-5.187324289E+01+
*       2.0000000000E+01               0
GRID*               2358               03.3294974077E+01-4.607631674E+01+
*       2.0000000000E+01               0
GRID*               2359               02.9052913953E+01-4.183584170E+01+
*       2.0000000000E+01               0
GRID*               2588               02.9055080797E+014.1836422737E+01+
*       0.0000000000E+00               0
GRID*               2589               02.3258153687E+014.3387960812E+01+
*       0.0000000000E+00               0
GRID*               2590               02.1704444794E+014.9184310572E+01+
*       0.0000000000E+00               0
GRID*               2591               02.5944919365E+015.3426371289E+01+
*       0.0000000000E+00               0
GRID*               2592               03.1741845479E+015.1874832610E+01+
*       0.0000000000E+00               0
GRID*               2593               03.1743436280E+014.3389550780E+01+
*       0.0000000000E+00               0
GRID*               2594               02.5947086546E+014.1835842076E+01+
*       0.0000000000E+00               0
GRID*               2595               02.1705026014E+014.6076316401E+01+
*       0.0000000000E+00               0
GRID*               2596               02.3256564554E+015.1873242642E+01+
*       0.0000000000E+00               0
GRID*               2597               02.9052913612E+015.3426952888E+01+
*       0.0000000000E+00               0
GRID*               2598               03.3294974077E+014.9186477753E+01+
*       0.0000000000E+00               0
GRID*               2391               03.1741845479E+015.1874832610E+01+
*       2.0000000000E+01               0
GRID*               2392               02.5944919365E+015.3426371289E+01+
*       2.0000000000E+01               0
GRID*               2393               02.1704444794E+014.9184310572E+01+
*       2.0000000000E+01               0
GRID*               2394               02.3258153687E+014.3387960812E+01+
*       2.0000000000E+01               0
GRID*               2395               02.9055080797E+014.1836422737E+01+
*       2.0000000000E+01               0
GRID*               2396               02.1705026014E+014.6076316401E+01+
*       2.0000000000E+01               0
GRID*               2397               02.5947086546E+014.1835842076E+01+
*       2.0000000000E+01               0
GRID*               2398               03.1743436280E+014.3389550780E+01+
*       2.0000000000E+01               0
GRID*               2399               02.3256564554E+015.1873242642E+01+
*       2.0000000000E+01               0
GRID*               2400               03.3294974077E+014.9186477753E+01+
*       2.0000000000E+01               0
GRID*               2401               02.9052913612E+015.3426952888E+01+
*       2.0000000000E+01               0
GRID*               2478               02.1355297797E+00-2.490862217E+01+
*       -1.000000000E+01               0
GRID*               2479               0-1.060403854E+01-2.263963687E+01+
*       -1.000000000E+01               0
GRID*               2480               0-2.050252041E+01-1.430547525E+01+
*       -1.000000000E+01               0
GRID*               2481               0-2.490817695E+01-2.140565772E+00+
*       -1.000000000E+01               0
GRID*               2482               0-2.264035952E+011.0602529257E+01+
*       -1.000000000E+01               0
GRID*               2483               0-1.430548531E+012.0502511859E+01+
*       -1.000000000E+01               0
GRID*               2484               0-2.136237159E+002.4908526765E+01+
*       -1.000000000E+01               0
GRID*               2485               01.0603103097E+012.2640097205E+01+
*       -1.000000000E+01               0
GRID*               2486               02.0501395596E+011.4307081005E+01+
*       -1.000000000E+01               0
GRID*               2487               02.4908145861E+012.1410250631E+00+
*       -1.000000000E+01               0
GRID*               2488               02.2640342143E+01-1.060249149E+01+
*       -1.000000000E+01               0
GRID*               2489               01.9123576742E+01-1.610244761E+01+
*       -1.000000000E+01               0
GRID*               2490               02.3774244002E+01-4.230733215E+00+
*       -1.000000000E+01               0
GRID*               2491               02.2704770728E+018.2240530338E+00+
*       -1.000000000E+01               0
GRID*               2492               01.5552249346E+011.8473589105E+01+
*       -1.000000000E+01               0
GRID*               2493               04.3820924511E+002.4612946698E+01+
*       -1.000000000E+01               0
GRID*               2494               0-8.220861234E+002.2705519312E+01+
*       -1.000000000E+01               0
GRID*               2495               0-1.912424810E+011.6101553962E+01+
*       -1.000000000E+01               0
GRID*               2496               0-2.461360494E+014.3784032733E+00+
*       -1.000000000E+01               0
GRID*               2497               0-2.350595480E+01-8.512884280E+00+
*       -1.000000000E+01               0
GRID*               2498               0-1.610157217E+01-1.912430734E+01+
*       -1.000000000E+01               0
GRID*               2499               0-4.384600183E+00-2.461250254E+01+
*       -1.000000000E+01               0
GRID*               2500               08.5097777583E+00-2.350706416E+01+
*       -1.000000000E+01               0
GRID*               2501               01.4644526994E+00-3.911469841E+01+
*       0.0000000000E+00               0
GRID*               2502               0-1.829011888E+01-3.460604038E+01+
*       0.0000000000E+00               0
GRID*               2503               0-3.314259338E+01-2.082487106E+01+
*       0.0000000000E+00               0
GRID*               2504               0-3.911469841E+01-1.464452699E+00+
*       0.0000000000E+00               0
GRID*               2505               0-3.460604038E+011.8290118883E+01+
*       0.0000000000E+00               0
GRID*               2506               0-2.082487106E+013.3142593384E+01+
*       0.0000000000E+00               0
GRID*               2507               0-1.464452699E+003.9114698411E+01+
*       0.0000000000E+00               0
GRID*               2508               01.8290118883E+013.4606040380E+01+
*       0.0000000000E+00               0
GRID*               2509               03.3142593384E+012.0824871063E+01+
*       0.0000000000E+00               0
GRID*               2510               03.9114698411E+011.4644526994E+00+
*       0.0000000000E+00               0
GRID*               2511               03.4606040380E+01-1.829011888E+01+
*       0.0000000000E+00               0
GRID*               2512               02.8693792743E+01-2.662274392E+01+
*       0.0000000000E+00               0
GRID*               2513               03.8160758980E+01-8.709944689E+00+
*       0.0000000000E+00               0
GRID*               2514               03.6128645898E+011.1144661881E+01+
*       0.0000000000E+00               0
GRID*               2515               02.5716356133E+012.7715455722E+01+
*       0.0000000000E+00               0
GRID*               2516               08.7099446891E+003.8160758980E+01+
*       0.0000000000E+00               0
GRID*               2517               0-1.114466188E+013.6128645898E+01+
*       0.0000000000E+00               0
GRID*               2518               0-2.771545572E+012.5716356133E+01+
*       0.0000000000E+00               0
GRID*               2519               0-3.816075898E+018.7099446891E+00+
*       0.0000000000E+00               0
GRID*               2520               0-3.740323469E+01-1.153709923E+01+
*       0.0000000000E+00               0
GRID*               2521               0-2.662274392E+01-2.869379274E+01+
*       0.0000000000E+00               0
GRID*               2522               0-8.412833092E+00-3.686036940E+01+
*       0.0000000000E+00               0
GRID*               2523               01.1144661881E+01-3.612864590E+01+
*       0.0000000000E+00               0
GRID*               2599               05.9760402974E+013.6520782139E+00+
*       0.0000000000E+00               0
GRID*               2600               05.4216295097E+015.9485230147E+00+
*       0.0000000000E+00               0
GRID*               2601               04.9456722260E+012.2961003780E+00+
*       0.0000000000E+00               0
GRID*               2602               05.0239596551E+01-3.652078358E+00+
*       0.0000000000E+00               0
GRID*               2603               05.5783704732E+01-5.948523037E+00+
*       0.0000000000E+00               0
GRID*               2604               04.9051476916E+01-7.837048242E-01+
*       0.0000000000E+00               0
GRID*               2605               05.1347921521E+014.7604034395E+00+
*       0.0000000000E+00               0
GRID*               2606               05.6988349035E+014.8003006143E+00+
*       0.0000000000E+00               0
GRID*               2607               05.2703899630E+01-5.543277366E+00+
*       0.0000000000E+00               0
GRID*               2608               06.0948523084E+017.8370482420E-01+
*       0.0000000000E+00               0
GRID*               2609               05.8163491236E+01-4.122311708E+00+
*       0.0000000000E+00               0
GRID*               2413               05.5783704732E+01-5.948523037E+00+
*       2.0000000000E+01               0
GRID*               2414               05.0239596551E+01-3.652078358E+00+
*       2.0000000000E+01               0
GRID*               2415               04.9456722260E+012.2961003780E+00+
*       2.0000000000E+01               0
GRID*               2416               05.4216295097E+015.9485230147E+00+
*       2.0000000000E+01               0
GRID*               2417               05.9760402974E+013.6520782139E+00+
*       2.0000000000E+01               0
GRID*               2418               04.9051476916E+01-7.837048242E-01+
*       2.0000000000E+01               0
GRID*               2419               05.2703899630E+01-5.543277366E+00+
*       2.0000000000E+01               0
GRID*               2420               05.8652078342E+01-4.760403545E+00+
*       2.0000000000E+01               0
GRID*               2421               05.1347921521E+014.7604034395E+00+
*       2.0000000000E+01               0
GRID*               2422               06.0948523084E+017.8370482420E-01+
*       2.0000000000E+01               0
GRID*               2423               05.7296100211E+015.5432774317E+00+
*       2.0000000000E+01               0
GRID*               2149               08.3955688083E+012.4651306815E+01+
*       1.0000132671E+01               0
GRID*               2150               08.6609278759E+011.2453011023E+01+
*       9.9998647881E+00               0
GRID*               2151               07.3609310554E+014.7306589191E+01+
*       9.9998661076E+00               0
GRID*               2152               07.9592726642E+013.6348971473E+01+
*       9.9999984418E+00               0
GRID*               2153               05.7300043755E+016.6128320484E+01+
*       9.9999940395E+00               0
GRID*               2154               06.6128136470E+015.7300214852E+01+
*       1.0000126913E+01               0
GRID*               2155               03.6348723851E+017.9592811837E+01+
*       1.0000118602E+01               0
GRID*               2156               04.7305392371E+017.3610085881E+01+
*       9.9998719699E+00               0
GRID*               2157               01.2451631373E+018.6609479540E+01+
*       9.9998832321E+00               0
GRID*               2158               02.4651073974E+018.3955787033E+01+
*       9.9999871148E+00               0
GRID*               2159               0-1.245082763E+018.6609620338E+01+
*       9.9999782898E+00               0
GRID*               2160               08.2747411673E-048.7500000031E+01+
*       9.9999999481E+00               0
GRID*               2161               0-3.634699589E+017.9593603521E+01+
*       1.0000096573E+01               0
GRID*               2162               0-2.465020647E+018.3956010528E+01+
*       9.9999003687E+00               0
GRID*               2163               0-5.729927545E+016.6128947731E+01+
*       9.9999249265E+00               0
GRID*               2164               0-4.730477622E+017.3610509882E+01+
*       9.9999675703E+00               0
GRID*               2165               0-7.360895327E+014.7307183298E+01+
*       9.9999556857E+00               0
GRID*               2166               0-6.612690706E+015.7301645468E+01+
*       1.0000083732E+01               0
GRID*               2167               0-8.395517798E+012.4653099262E+01+
*       1.0000070551E+01               0
GRID*               2168               0-7.959223816E+013.6349963028E+01+
*       9.9999575492E+00               0
GRID*               2169               0-8.749996893E+011.2387060957E-03+
*       9.9999997118E+00               0
GRID*               2170               0-8.660919982E+011.2453655714E+01+
*       9.9999427910E+00               0
GRID*               2171               0-8.395587661E+01-2.465072010E+01+
*       9.9999295982E+00               0
GRID*               2172               0-8.660955266E+01-1.245120138E+01+
*       1.0000057214E+01               0
GRID*               2173               0-7.361029381E+01-4.730509732E+01+
*       1.0000044456E+01               0
GRID*               2174               0-7.959326746E+01-3.634770920E+01+
*       1.0000041856E+01               0
GRID*               2175               0-5.730114828E+01-6.612732493E+01+
*       1.0000074723E+01               0
GRID*               2176               0-6.612853087E+01-5.729977156E+01+
*       9.9999162850E+00               0
GRID*               2177               0-3.634925142E+01-7.959257351E+01+
*       9.9999035647E+00               0
GRID*               2178               0-4.730686211E+01-7.360916933E+01+
*       1.0000032443E+01               0
GRID*               2179               0-1.245328189E+01-8.660926745E+01+
*       1.0000021824E+01               0
GRID*               2180               0-2.465258443E+01-8.395531231E+01+
*       1.0000099273E+01               0
GRID*               2181               01.2451631387E+01-8.660947954E+01+
*       1.0000116758E+01               0
GRID*               2182               0-2.868209050E-04-8.749997784E+01+
*       9.9998917036E+00               0
GRID*               2183               03.6348723857E+01-7.959281183E+01+
*       9.9998813942E+00               0
GRID*               2184               02.4651073989E+01-8.395578703E+01+
*       1.0000012822E+01               0
GRID*               2185               05.7300043755E+01-6.612832048E+01+
*       1.0000005960E+01               0
GRID*               2186               04.7305392387E+01-7.361008587E+01+
*       1.0000127983E+01               0
GRID*               2187               07.3609310556E+01-4.730658919E+01+
*       1.0000133890E+01               0
GRID*               2188               06.6128136476E+01-5.730021485E+01+
*       9.9998730616E+00               0
GRID*               2189               08.3955688083E+01-2.465130681E+01+
*       9.9998673288E+00               0
GRID*               2190               07.9592726643E+01-3.634897147E+01+
*       1.0000001549E+01               0
GRID*               2191               08.6609278759E+01-1.245301102E+01+
*       1.0000135211E+01               0
GRID*               1011               0-6.840719105E+01-1.334000993E+01+
*       2.0000000000E+01               0
GRID*               1012               03.9809491930E+01-6.103114196E+01+
*       2.0000000000E+01               0
GRID*               1013               03.2524970941E+01-5.631690193E+01+
*       2.0000000000E+01               0
GRID*               1014               01.5977796426E+014.5153450178E+01+
*       2.0000000000E+01               0
GRID*               1015               0-6.165905724E+011.3756063786E+01+
*       2.0000000000E+01               0
GRID*               1016               0-7.003048760E+013.3384107479E+00+
*       2.0000000000E+01               0
GRID*               1017               0-3.199930490E+016.0728311540E+01+
*       2.0000000000E+01               0
GRID*               1018               0-3.446258428E+015.3787514720E+01+
*       2.0000000000E+01               0
GRID*               1019               04.4780297292E+014.8887896957E+01+
*       2.0000000000E+01               0
GRID*               1020               07.0954200072E+01-1.360605050E+01+
*       2.0000000000E+01               0
GRID*               1021               06.3207165948E+01-6.620675449E+00+
*       2.0000000000E+01               0
GRID*               1022               03.0299840223E+01-3.794694169E+01+
*       2.0000000000E+01               0
GRID*               1023               03.4126574010E+01-3.118469918E+01+
*       2.0000000000E+01               0
GRID*               1024               03.9075642310E+01-2.371897548E+01+
*       2.0000000000E+01               0
GRID*               1025               04.7007085671E+01-2.045770837E+01+
*       2.0000000000E+01               0
GRID*               1026               05.0273495887E+01-1.106722181E+01+
*       2.0000000000E+01               0
GRID*               1027               0-4.646899823E+01-5.332167006E+01+
*       2.0000000000E+01               0
GRID*               1028               0-3.783756262E+01-5.127681942E+01+
*       2.0000000000E+01               0
GRID*               1029               0-5.660349694E+01-4.544720833E+01+
*       2.0000000000E+01               0
GRID*               1030               0-4.531535752E+01-4.358383913E+01+
*       2.0000000000E+01               0
GRID*               1031               0-3.731617863E+01-4.388377705E+01+
*       2.0000000000E+01               0
GRID*               1032               0-6.528582136E+01-3.128189412E+01+
*       2.0000000000E+01               0
GRID*               1033               0-5.243176622E+01-3.323218894E+01+
*       2.0000000000E+01               0
GRID*               1034               0-4.189014992E+01-3.380605966E+01+
*       2.0000000000E+01               0
GRID*               1035               0-3.307728436E+01-3.693145892E+01+
*       2.0000000000E+01               0
GRID*               1036               0-5.776459634E+01-2.285127095E+01+
*       2.0000000000E+01               0
GRID*               1037               0-5.584560301E+01-1.329220340E+01+
*       2.0000000000E+01               0
GRID*               1038               0-4.841658475E+01-2.259297854E+01+
*       2.0000000000E+01               0
GRID*               1039               0-4.731672906E+01-1.160482234E+01+
*       2.0000000000E+01               0
GRID*               1040               0-1.545545437E+01-4.520765281E+01+
*       2.0000000000E+01               0
GRID*               1041               0-3.604781173E+00-4.800473939E+01+
*       2.0000000000E+01               0
GRID*               1042               08.4915064971E+00-5.023866421E+01+
*       2.0000000000E+01               0
GRID*               1043               01.7603714212E+01-5.154647497E+01+
*       2.0000000000E+01               0
GRID*               1044               01.4919944945E+01-4.472423911E+01+
*       2.0000000000E+01               0
GRID*               1045               0-2.181648641E+01-6.774622999E+01+
*       2.0000000000E+01               0
GRID*               1046               0-3.741926326E+01-6.180451561E+01+
*       2.0000000000E+01               0
GRID*               1047               0-1.319502053E+01-5.612043957E+01+
*       2.0000000000E+01               0
GRID*               1048               0-4.551655528E+00-7.013581216E+01+
*       2.0000000000E+01               0
GRID*               1049               08.6490228350E+00-6.770531288E+01+
*       2.0000000000E+01               0
GRID*               1050               01.3521451538E+01-5.898549339E+01+
*       2.0000000000E+01               0
GRID*               1051               01.7307507777E+00-5.849799995E+01+
*       2.0000000000E+01               0
GRID*               1052               03.0394120602E+01-6.381571530E+01+
*       2.0000000000E+01               0
GRID*               1053               02.3923212930E+01-5.776131439E+01+
*       2.0000000000E+01               0
GRID*               1054               02.0715677707E+01-6.850370495E+01+
*       2.0000000000E+01               0
GRID*               1055               05.6696449226E+01-4.336887400E+01+
*       2.0000000000E+01               0
GRID*               1056               04.5357486696E+01-3.981667555E+01+
*       2.0000000000E+01               0
GRID*               1057               03.6988216694E+01-3.816450577E+01+
*       2.0000000000E+01               0
GRID*               1058               03.7791407791E+01-5.249170722E+01+
*       2.0000000000E+01               0
GRID*               1059               03.8351130540E+01-4.566734044E+01+
*       2.0000000000E+01               0
GRID*               1060               04.5528590640E+01-5.091546976E+01+
*       2.0000000000E+01               0
GRID*               1061               05.2464900354E+01-3.003820858E+01+
*       2.0000000000E+01               0
GRID*               1062               04.2419567097E+01-3.064728477E+01+
*       2.0000000000E+01               0
GRID*               1063               05.7915909711E+01-1.667023364E+01+
*       2.0000000000E+01               0
GRID*               1064               06.5783968835E+01-2.914950902E+01+
*       2.0000000000E+01               0
GRID*               1065               05.1182165249E+011.4785564133E+01+
*       2.0000000000E+01               0
GRID*               1066               05.0080615494E+013.1934189489E+01+
*       2.0000000000E+01               0
GRID*               1067               03.5762300336E+013.7018583361E+01+
*       2.0000000000E+01               0
GRID*               1068               06.6787862604E+019.3582949942E+00+
*       2.0000000000E+01               0
GRID*               1069               06.9634185220E+01-2.450265158E+00+
*       2.0000000000E+01               0
GRID*               1070               06.3841404622E+01-1.169220290E-02+
*       2.0000000000E+01               0
GRID*               1071               06.4814382191E+012.5015404395E+01+
*       2.0000000000E+01               0
GRID*               1072               02.2902344427E+015.7078810910E+01+
*       2.0000000000E+01               0
GRID*               1073               02.0341214704E+016.7449966955E+01+
*       2.0000000000E+01               0
GRID*               1074               04.6032442388E+004.9727804086E+01+
*       2.0000000000E+01               0
GRID*               1075               0-8.634445311E+005.4139070194E+01+
*       2.0000000000E+01               0
GRID*               1076               0-1.968485054E+016.4322649410E+01+
*       2.0000000000E+01               0
GRID*               1077               01.4762702110E+015.5434503148E+01+
*       2.0000000000E+01               0
GRID*               1078               01.7227971596E+006.6216037467E+01+
*       2.0000000000E+01               0
GRID*               1079               03.3889672448E+016.0673503086E+01+
*       2.0000000000E+01               0
GRID*               1080               0-3.183243143E+013.7887098593E+01+
*       2.0000000000E+01               0
GRID*               1081               0-4.016524125E+013.6430743515E+01+
*       2.0000000000E+01               0
GRID*               1082               0-4.735617215E+012.8760893934E+01+
*       2.0000000000E+01               0
GRID*               1083               0-5.296681069E+012.0412093696E+01+
*       2.0000000000E+01               0
GRID*               1084               0-5.081042201E+011.1975428635E+01+
*       2.0000000000E+01               0
GRID*               1085               0-4.485218402E+011.8686687314E+01+
*       2.0000000000E+01               0
GRID*               1086               0-4.177015031E+015.7930047765E+01+
*       2.0000000000E+01               0
GRID*               1087               0-3.775783074E+014.6306025404E+01+
*       2.0000000000E+01               0
GRID*               1088               0-5.124408243E+014.4536288155E+01+
*       2.0000000000E+01               0
GRID*               1089               0-6.146747412E+012.9858789058E+01+
*       2.0000000000E+01               0
GRID*               1090               0-6.489544516E+01-1.568336451E-01+
*       2.0000000000E+01               0
GRID*               1091               0-6.921883932E+01-5.000799591E+00+
*       2.0000000000E+01               0
GRID*               1092               0-6.408379689E+01-8.496043984E+00+
*       2.0000000000E+01               0
GRID*               1093               0-6.528688267E+012.8172555630E+00+
*       2.0000000000E+01               0
GRID*               1094               0-7.795358007E+01-6.669385178E+00+
*       2.0000000000E+01               0
GRID*               1095               0-7.618156790E+01-1.899526250E+01+
*       2.0000000000E+01               0
GRID*               1096               0-7.876522834E+011.6698251610E+00+
*       2.0000000000E+01               0
GRID*               1097               0-7.699286693E+011.3995652269E+01+
*       2.0000000000E+01               0
GRID*               1098               0-6.584477242E+018.5472372671E+00+
*       2.0000000000E+01               0
GRID*               1099               0-7.280715175E+011.9204478788E+01+
*       2.0000000000E+01               0
GRID*               1100               0-6.110116749E+018.0260820821E+00+
*       2.0000000000E+01               0
GRID*               1101               0-5.872138098E+019.8522933955E+00+
*       2.0000000000E+01               0
GRID*               1102               0-4.418200976E+013.4946073550E+00+
*       2.0000000000E+01               0
GRID*               1103               0-4.447808598E+01-4.302154612E+00+
*       2.0000000000E+01               0
GRID*               1104               0-4.457344699E+016.4686966684E+00+
*       2.0000000000E+01               0
GRID*               1105               0-1.413340265E+014.2417223482E+01+
*       2.0000000000E+01               0
GRID*               1106               0-2.145076595E+013.9706680277E+01+
*       2.0000000000E+01               0
GRID*               1107               0-1.452483996E+014.5391312821E+01+
*       2.0000000000E+01               0
GRID*               1108               01.8841120610E+014.7168880375E+01+
*       2.0000000000E+01               0
GRID*               1109               01.9617975057E+014.4270705495E+01+
*       2.0000000000E+01               0
GRID*               1110               02.3362766810E+013.7890292138E+01+
*       2.0000000000E+01               0
GRID*               1111               02.6261230364E+013.7114523101E+01+
*       2.0000000000E+01               0
GRID*               1112               01.9722588179E+013.8773036821E+01+
*       2.0000000000E+01               0
GRID*               1113               01.2631558083E+014.2030406274E+01+
*       2.0000000000E+01               0
GRID*               1114               0-6.684650620E+01-2.231095202E+01+
*       2.0000000000E+01               0
GRID*               1115               0-7.462088305E+01-2.796620460E+01+
*       2.0000000000E+01               0
GRID*               1116               0-6.152520885E+01-2.706658253E+01+
*       2.0000000000E+01               0
GRID*               1117               0-5.885879379E+01-3.225704153E+01+
*       2.0000000000E+01               0
GRID*               1118               0-5.509818128E+01-2.804172994E+01+
*       2.0000000000E+01               0
GRID*               1119               0-5.780300287E+01-8.472140720E+00+
*       2.0000000000E+01               0
GRID*               1120               0-5.503094906E+01-9.620363192E+00+
*       2.0000000000E+01               0
GRID*               1121               0-6.212639703E+01-1.331610667E+01+
*       2.0000000000E+01               0
GRID*               1122               0-6.308589370E+01-1.809564044E+01+
*       2.0000000000E+01               0
GRID*               1123               0-5.680509968E+01-1.807173717E+01+
*       2.0000000000E+01               0
GRID*               1124               0-5.042417549E+01-2.791258374E+01+
*       2.0000000000E+01               0
GRID*               1125               0-5.309059055E+01-2.272212475E+01+
*       2.0000000000E+01               0
GRID*               1126               0-4.716095807E+01-3.351912430E+01+
*       2.0000000000E+01               0
GRID*               1127               0-4.515336734E+01-2.819951910E+01+
*       2.0000000000E+01               0
GRID*               1128               0-5.076651208E+01-8.776672661E+00+
*       2.0000000000E+01               0
GRID*               1129               0-4.838672566E+01-6.950461359E+00+
*       2.0000000000E+01               0
GRID*               1130               0-5.158116604E+01-1.244851287E+01+
*       2.0000000000E+01               0
GRID*               1131               0-5.213109388E+01-1.794259097E+01+
*       2.0000000000E+01               0
GRID*               1132               0-4.786665691E+01-1.709890044E+01+
*       2.0000000000E+01               0
GRID*               1133               0-4.340808938E+01-8.956515593E+00+
*       2.0000000000E+01               0
GRID*               1134               0-2.587549102E+01-3.703778580E+01+
*       2.0000000000E+01               0
GRID*               1135               0-2.827228092E+01-3.466207829E+01+
*       2.0000000000E+01               0
GRID*               1136               0-3.068049446E+01-3.930716644E+01+
*       2.0000000000E+01               0
GRID*               1137               0-2.310343689E+01-3.818600820E+01+
*       2.0000000000E+01               0
GRID*               1138               0-4.069728161E+01-1.627494940E+01+
*       2.0000000000E+01               0
GRID*               1139               0-4.124720945E+01-2.176902750E+01+
*       2.0000000000E+01               0
GRID*               1140               0-3.357755926E+01-2.893826769E+01+
*       2.0000000000E+01               0
GRID*               1141               0-3.798399204E+01-2.737556806E+01+
*       2.0000000000E+01               0
GRID*               1142               0-3.748371714E+01-3.536875929E+01+
*       2.0000000000E+01               0
GRID*               1143               0-3.306028099E+01-4.113337761E+01+
*       2.0000000000E+01               0
GRID*               1144               0-3.519673150E+01-4.040761799E+01+
*       2.0000000000E+01               0
GRID*               1145               0-3.517972812E+01-4.460953668E+01+
*       2.0000000000E+01               0
GRID*               1146               0-3.960316427E+01-3.884491836E+01+
*       2.0000000000E+01               0
GRID*               1147               0-6.944802296E+01-3.929355444E+01+
*       2.0000000000E+01               0
GRID*               1148               0-4.887356187E+01-3.840801404E+01+
*       2.0000000000E+01               0
GRID*               1149               0-4.360275372E+01-3.869494940E+01+
*       2.0000000000E+01               0
GRID*               1150               0-4.131576808E+01-4.373380809E+01+
*       2.0000000000E+01               0
GRID*               1151               0-6.094465915E+01-3.836455122E+01+
*       2.0000000000E+01               0
GRID*               1152               0-6.510686075E+01-4.637621154E+01+
*       2.0000000000E+01               0
GRID*               1153               0-5.451763158E+01-3.933969863E+01+
*       2.0000000000E+01               0
GRID*               1154               0-5.095942723E+01-4.451552373E+01+
*       2.0000000000E+01               0
GRID*               1155               0-3.478829104E+01-4.758362607E+01+
*       2.0000000000E+01               0
GRID*               1156               0-3.757687063E+01-4.758029824E+01+
*       2.0000000000E+01               0
GRID*               1157               0-3.504898304E+01-5.128014726E+01+
*       2.0000000000E+01               0
GRID*               1158               0-4.157646007E+01-4.743032928E+01+
*       2.0000000000E+01               0
GRID*               1159               0-4.589217788E+01-4.845275460E+01+
*       2.0000000000E+01               0
GRID*               1160               0-4.215328043E+01-5.229924474E+01+
*       2.0000000000E+01               0
GRID*               1161               0-5.695223611E+01-5.578734228E+01+
*       2.0000000000E+01               0
GRID*               1162               0-5.153624759E+01-4.938443919E+01+
*       2.0000000000E+01               0
GRID*               1163               0-5.188498676E+01-5.972457314E+01+
*       2.0000000000E+01               0
GRID*               1164               02.7536025590E+01-3.263117591E+01+
*       2.0000000000E+01               0
GRID*               1165               03.3259097145E+01-2.732673185E+01+
*       2.0000000000E+01               0
GRID*               1166               02.5622658697E+01-3.601229717E+01+
*       2.0000000000E+01               0
GRID*               1167               03.2213207116E+01-3.456582044E+01+
*       2.0000000000E+01               0
GRID*               1168               03.5733631296E+01-2.359387000E+01+
*       2.0000000000E+01               0
GRID*               1169               03.6601108160E+01-2.745183733E+01+
*       2.0000000000E+01               0
GRID*               1170               04.4181823867E+01-3.495522102E+00+
*       2.0000000000E+01               0
GRID*               1171               04.4573261093E+01-6.469611416E+00+
*       2.0000000000E+01               0
GRID*               1172               04.4477741422E+014.3043115784E+00+
*       2.0000000000E+01               0
GRID*               1173               03.8991283892E+01-1.650306003E+01+
*       2.0000000000E+01               0
GRID*               1174               04.3041363991E+01-2.208834192E+01+
*       2.0000000000E+01               0
GRID*               1175               04.2957005572E+01-1.487242647E+01+
*       2.0000000000E+01               0
GRID*               1176               04.4590210681E+01-1.017718320E+01+
*       2.0000000000E+01               0
GRID*               1177               05.0256546300E+01-7.359650031E+00+
*       2.0000000000E+01               0
GRID*               1178               04.8640290779E+01-1.576246509E+01+
*       2.0000000000E+01               0
GRID*               1179               0-1.237130779E+01-4.205725479E+01+
*       2.0000000000E+01               0
GRID*               1180               0-9.530117771E+00-4.660619610E+01+
*       2.0000000000E+01               0
GRID*               1181               0-6.445971188E+00-4.345579808E+01+
*       2.0000000000E+01               0
GRID*               1182               0-1.946136593E+01-3.880017523E+01+
*       2.0000000000E+01               0
GRID*               1183               0-1.909752534E+01-4.459348578E+01+
*       2.0000000000E+01               0
GRID*               1184               02.3445198438E+01-3.795703788E+01+
*       2.0000000000E+01               0
GRID*               1185               02.1324961074E+01-4.007806794E+01+
*       2.0000000000E+01               0
GRID*               1186               02.8122379964E+01-3.989168240E+01+
*       2.0000000000E+01               0
GRID*               1187               01.0615096181E+01-4.211168163E+01+
*       2.0000000000E+01               0
GRID*               1188               01.7932711058E+01-3.940094588E+01+
*       2.0000000000E+01               0
GRID*               1189               01.8312194961E+01-4.540136117E+01+
*       2.0000000000E+01               0
GRID*               1190               01.6261829578E+01-4.813535704E+01+
*       2.0000000000E+01               0
GRID*               1191               01.9654079594E+01-4.881247911E+01+
*       2.0000000000E+01               0
GRID*               1192               01.3527331219E+00-4.375193177E+01+
*       2.0000000000E+01               0
GRID*               1193               02.4433626622E+00-4.912170180E+01+
*       2.0000000000E+01               0
GRID*               1194               07.4008769568E+00-4.486889418E+01+
*       2.0000000000E+01               0
GRID*               1195               01.1705725721E+01-4.748145166E+01+
*       2.0000000000E+01               0
GRID*               1196               01.3047610354E+01-5.089256959E+01+
*       2.0000000000E+01               0
GRID*               1197               02.0430934242E+01-5.171065367E+01+
*       2.0000000000E+01               0
GRID*               1198               0-4.194413075E+01-5.756309283E+01+
*       2.0000000000E+01               0
GRID*               1199               0-3.762841294E+01-5.654066751E+01+
*       2.0000000000E+01               0
GRID*               1200               0-4.736011927E+01-6.396599592E+01+
*       2.0000000000E+01               0
GRID*               1201               0-3.688439380E+01-7.069848685E+01+
*       2.0000000000E+01               0
GRID*               1202               0-3.227692909E+01-5.242836987E+01+
*       2.0000000000E+01               0
GRID*               1203               0-3.206777942E+01-5.769221790E+01+
*       2.0000000000E+01               0
GRID*               1204               0-2.961787483E+01-6.477537280E+01+
*       2.0000000000E+01               0
GRID*               1205               0-2.426639099E+01-6.066307509E+01+
*       2.0000000000E+01               0
GRID*               1206               0-2.908300537E+01-7.366934404E+01+
*       2.0000000000E+01               0
GRID*               1207               0-1.713485137E+01-7.717775487E+01+
*       2.0000000000E+01               0
GRID*               1208               0-1.432523745E+01-5.066404619E+01+
*       2.0000000000E+01               0
GRID*               1209               0-8.399900853E+00-5.206258948E+01+
*       2.0000000000E+01               0
GRID*               1210               0-1.757587140E+01-5.302396872E+01+
*       2.0000000000E+01               0
GRID*               1211               0-1.870608831E+01-4.756757533E+01+
*       2.0000000000E+01               0
GRID*               1212               0-1.995565805E+01-5.485017988E+01+
*       2.0000000000E+01               0
GRID*               1213               0-1.750575347E+01-6.193333478E+01+
*       2.0000000000E+01               0
GRID*               1214               01.1006479018E+01-5.461207880E+01+
*       2.0000000000E+01               0
GRID*               1215               05.1111286374E+00-5.436833208E+01+
*       2.0000000000E+01               0
GRID*               1216               07.6261011581E+00-5.874174667E+01+
*       2.0000000000E+01               0
GRID*               1217               01.5562582875E+01-5.526598418E+01+
*       2.0000000000E+01               0
GRID*               1218               0-9.370151976E-01-5.325136967E+01+
*       2.0000000000E+01               0
GRID*               1219               0-5.732134877E+00-5.730921976E+01+
*       2.0000000000E+01               0
GRID*               1220               05.1898868063E+00-6.310165642E+01+
*       2.0000000000E+01               0
GRID*               1221               01.1085237187E+01-6.334540314E+01+
*       2.0000000000E+01               0
GRID*               1222               0-1.318407097E+01-6.894102107E+01+
*       2.0000000000E+01               0
GRID*               1223               0-8.873338030E+00-6.312812586E+01+
*       2.0000000000E+01               0
GRID*               1224               0-8.502435927E+00-7.837254596E+01+
*       2.0000000000E+01               0
GRID*               1225               0-1.410452375E+00-6.431690606E+01+
*       2.0000000000E+01               0
GRID*               1226               02.0486836537E+00-6.892056252E+01+
*       2.0000000000E+01               0
GRID*               1227               03.5101806266E+01-6.242342863E+01+
*       2.0000000000E+01               0
GRID*               1228               03.6167231435E+01-5.867402195E+01+
*       2.0000000000E+01               0
GRID*               1229               03.1459545771E+01-6.006630861E+01+
*       2.0000000000E+01               0
GRID*               1230               03.8078943892E+01-7.031205666E+01+
*       2.0000000000E+01               0
GRID*               1231               04.8554774953E+01-6.357972562E+01+
*       2.0000000000E+01               0
GRID*               1232               03.3371258228E+01-7.170434333E+01+
*       2.0000000000E+01               0
GRID*               1233               02.8224091936E+01-5.703910816E+01+
*       2.0000000000E+01               0
GRID*               1234               02.7158666766E+01-6.078851485E+01+
*       2.0000000000E+01               0
GRID*               1235               03.0790025699E+01-5.487163689E+01+
*       2.0000000000E+01               0
GRID*               1236               02.6489146693E+01-5.559384312E+01+
*       2.0000000000E+01               0
GRID*               1237               02.3590683601E+01-5.481807338E+01+
*       2.0000000000E+01               0
GRID*               1238               02.0763463571E+01-5.465389468E+01+
*       2.0000000000E+01               0
GRID*               1239               01.8722332234E+01-5.837340389E+01+
*       2.0000000000E+01               0
GRID*               1240               03.9501660124E+00-7.837262204E+01+
*       2.0000000000E+01               0
GRID*               1241               01.0550505194E+01-7.715737240E+01+
*       2.0000000000E+01               0
GRID*               1242               02.8532036780E+01-7.404833816E+01+
*       2.0000000000E+01               0
GRID*               1243               01.6583832630E+01-7.755656844E+01+
*       2.0000000000E+01               0
GRID*               1244               01.4682350271E+01-6.810450892E+01+
*       2.0000000000E+01               0
GRID*               1245               01.7118564623E+01-6.374459917E+01+
*       2.0000000000E+01               0
GRID*               1246               02.2319445319E+01-6.313250967E+01+
*       2.0000000000E+01               0
GRID*               1247               02.5554899154E+01-6.615971012E+01+
*       2.0000000000E+01               0
GRID*               1248               05.3028600305E+01-8.507872409E+00+
*       2.0000000000E+01               0
GRID*               1249               03.2910263028E+01-5.275060642E+01+
*       2.0000000000E+01               0
GRID*               1250               03.4365031628E+01-4.077623341E+01+
*       2.0000000000E+01               0
GRID*               1251               03.3644028459E+01-3.805572373E+01+
*       2.0000000000E+01               0
GRID*               1252               03.1020843393E+01-4.066745138E+01+
*       2.0000000000E+01               0
GRID*               1253               03.5046488551E+01-4.452765075E+01+
*       2.0000000000E+01               0
GRID*               1254               03.7669673617E+01-4.191592310E+01+
*       2.0000000000E+01               0
GRID*               1255               03.5158189366E+01-5.440430458E+01+
*       2.0000000000E+01               0
GRID*               1256               03.5543481453E+01-5.083800907E+01+
*       2.0000000000E+01               0
GRID*               1257               03.8800449861E+01-5.676142459E+01+
*       2.0000000000E+01               0
GRID*               1258               03.5823342827E+01-4.742582568E+01+
*       2.0000000000E+01               0
GRID*               1259               03.8071269165E+01-4.907952383E+01+
*       2.0000000000E+01               0
GRID*               1260               05.6998253601E+01-5.474859163E+01+
*       2.0000000000E+01               0
GRID*               1261               06.5152993586E+01-4.533755987E+01+
*       2.0000000000E+01               0
GRID*               1262               05.1112519933E+01-4.714217188E+01+
*       2.0000000000E+01               0
GRID*               1263               05.1414324308E+01-5.852188952E+01+
*       2.0000000000E+01               0
GRID*               1264               04.2669041285E+01-5.597330586E+01+
*       2.0000000000E+01               0
GRID*               1265               04.5443038668E+01-4.536607265E+01+
*       2.0000000000E+01               0
GRID*               1266               05.1026967961E+01-4.159277477E+01+
*       2.0000000000E+01               0
GRID*               1267               04.1854308618E+01-4.274200800E+01+
*       2.0000000000E+01               0
GRID*               1268               04.1172851695E+01-3.899059066E+01+
*       2.0000000000E+01               0
GRID*               1269               04.1659999215E+01-5.170358849E+01+
*       2.0000000000E+01               0
GRID*               1270               04.1939860590E+01-4.829140510E+01+
*       2.0000000000E+01               0
GRID*               1271               03.5557395352E+01-3.467460247E+01+
*       2.0000000000E+01               0
GRID*               1272               03.9703891895E+01-3.440589527E+01+
*       2.0000000000E+01               0
GRID*               1273               04.3888526896E+01-3.523198016E+01+
*       2.0000000000E+01               0
GRID*               1274               03.8273070553E+01-3.091599197E+01+
*       2.0000000000E+01               0
GRID*               1275               04.0747604703E+01-2.718313012E+01+
*       2.0000000000E+01               0
GRID*               1276               04.7442233725E+01-3.034274667E+01+
*       2.0000000000E+01               0
GRID*               1277               04.9735993013E+01-2.524795847E+01+
*       2.0000000000E+01               0
GRID*               1278               04.4713326384E+01-2.555249657E+01+
*       2.0000000000E+01               0
GRID*               1279               04.8911193525E+01-3.492744207E+01+
*       2.0000000000E+01               0
GRID*               1280               05.4580674790E+01-3.670354129E+01+
*       2.0000000000E+01               0
GRID*               1281               05.9495435335E+01-6.284599227E+00+
*       2.0000000000E+01               0
GRID*               1282               05.6849807217E+01-1.130937832E+01+
*       2.0000000000E+01               0
GRID*               1283               06.0561537829E+01-1.164545455E+01+
*       2.0000000000E+01               0
GRID*               1284               06.1875221844E+01-4.458387913E+00+
*       2.0000000000E+01               0
GRID*               1285               05.2461497691E+01-1.856397101E+01+
*       2.0000000000E+01               0
GRID*               1286               05.5190405032E+01-2.335422111E+01+
*       2.0000000000E+01               0
GRID*               1287               05.4094702799E+01-1.386872773E+01+
*       2.0000000000E+01               0
GRID*               1288               06.4435054891E+01-1.513814207E+01+
*       2.0000000000E+01               0
GRID*               1289               06.7080683010E+01-1.011336298E+01+
*       2.0000000000E+01               0
GRID*               1290               06.1240209030E+01-3.625919151E+01+
*       2.0000000000E+01               0
GRID*               1291               05.9124434595E+01-2.959385880E+01+
*       2.0000000000E+01               0
GRID*               1292               06.9696753391E+01-3.822787738E+01+
*       2.0000000000E+01               0
GRID*               1293               07.4869774695E+01-2.690060478E+01+
*       2.0000000000E+01               0
GRID*               1294               06.1849939273E+01-2.290987133E+01+
*       2.0000000000E+01               0
GRID*               1295               06.8369084454E+01-2.137777976E+01+
*       2.0000000000E+01               0
GRID*               1296               07.7454890313E+01-1.912887552E+01+
*       2.0000000000E+01               0
GRID*               1297               05.0319443754E+018.5408322554E+00+
*       2.0000000000E+01               0
GRID*               1298               04.5340462916E+011.0549043456E+01+
*       2.0000000000E+01               0
GRID*               1299               05.2699230177E+011.0367043557E+01+
*       2.0000000000E+01               0
GRID*               1300               04.2629469923E+011.7866240356E+01+
*       2.0000000000E+01               0
GRID*               1301               04.2078695046E+012.6440553034E+01+
*       2.0000000000E+01               0
GRID*               1302               05.0631390372E+012.3359876811E+01+
*       2.0000000000E+01               0
GRID*               1303               03.4528927726E+014.1548533471E+01+
*       2.0000000000E+01               0
GRID*               1304               03.2408690567E+013.9427503049E+01+
*       2.0000000000E+01               0
GRID*               1305               04.0271298814E+014.2953240159E+01+
*       2.0000000000E+01               0
GRID*               1306               04.2921457915E+013.4476386425E+01+
*       2.0000000000E+01               0
GRID*               1307               04.7430456393E+014.0411043223E+01+
*       2.0000000000E+01               0
GRID*               1308               03.9037926203E+014.7483190269E+01+
*       2.0000000000E+01               0
GRID*               1309               03.4919537467E+012.8982749970E+01+
*       2.0000000000E+01               0
GRID*               1310               02.9614840134E+013.4705603413E+01+
*       2.0000000000E+01               0
GRID*               1311               07.0294192646E+01-8.028157831E+00+
*       2.0000000000E+01               0
GRID*               1312               06.6420675584E+01-4.535470303E+00+
*       2.0000000000E+01               0
GRID*               1313               07.9227100036E+01-6.803025252E+00+
*       2.0000000000E+01               0
GRID*               1314               07.8567092610E+01-1.225132579E+00+
*       2.0000000000E+01               0
GRID*               1315               07.7143931302E+014.6791474971E+00+
*       2.0000000000E+01               0
GRID*               1316               06.8211023912E+013.4540149180E+00+
*       2.0000000000E+01               0
GRID*               1317               07.5371721580E+011.7004997768E+01+
*       2.0000000000E+01               0
GRID*               1318               06.5314633613E+014.6733013957E+00+
*       2.0000000000E+01               0
GRID*               1319               06.6737794921E+01-1.230978681E+00+
*       2.0000000000E+01               0
GRID*               1320               06.1800903673E+011.8201929177E+00+
*       2.0000000000E+01               0
GRID*               1321               06.3274132664E+016.5051865162E+00+
*       2.0000000000E+01               0
GRID*               1322               06.2192341181E+01-1.153896290E+00+
*       2.0000000000E+01               0
GRID*               1323               06.3524285285E+01-3.316183826E+00+
*       2.0000000000E+01               0
GRID*               1324               06.0502078855E+017.6534089882E+00+
*       2.0000000000E+01               0
GRID*               1325               05.8985013927E+011.2071929563E+01+
*       2.0000000000E+01               0
GRID*               1326               05.7998273720E+011.9900484264E+01+
*       2.0000000000E+01               0
GRID*               1327               05.7447498843E+012.8474796942E+01+
*       2.0000000000E+01               0
GRID*               1328               06.5801122398E+011.7186849695E+01+
*       2.0000000000E+01               0
GRID*               1329               07.4384981373E+012.4833552469E+01+
*       2.0000000000E+01               0
GRID*               1330               06.9211960069E+013.6160825070E+01+
*       2.0000000000E+01               0
GRID*               1331               05.9194917619E+014.8097071351E+01+
*       2.0000000000E+01               0
GRID*               1332               05.1040177634E+015.7508103116E+01+
*       2.0000000000E+01               0
GRID*               1333               06.1845076721E+013.9620217617E+01+
*       2.0000000000E+01               0
GRID*               1334               0-2.398427773E+015.8951284952E+01+
*       2.0000000000E+01               0
GRID*               1335               0-2.121222371E+015.7803062359E+01+
*       2.0000000000E+01               0
GRID*               1336               0-2.584207772E+016.2525480475E+01+
*       2.0000000000E+01               0
GRID*               1337               0-3.014150491E+015.7154116018E+01+
*       2.0000000000E+01               0
GRID*               1338               0-3.137314460E+015.3683717608E+01+
*       2.0000000000E+01               0
GRID*               1339               0-3.323094459E+015.7257913130E+01+
*       2.0000000000E+01               0
GRID*               1340               06.9442819889E+004.4317583228E+01+
*       2.0000000000E+01               0
GRID*               1341               01.0290520333E+014.7440627132E+01+
*       2.0000000000E+01               0
GRID*               1342               0-1.568702110E+015.2711272751E+01+
*       2.0000000000E+01               0
GRID*               1343               0-1.415964793E+015.9230859802E+01+
*       2.0000000000E+01               0
GRID*               1344               0-7.472264174E+004.6819110264E+01+
*       2.0000000000E+01               0
GRID*               1345               0-8.534193991E-014.4613477210E+01+
*       2.0000000000E+01               0
GRID*               1346               0-2.015600536E+005.1933437140E+01+
*       2.0000000000E+01               0
GRID*               1347               01.8832523268E+015.6256657029E+01+
*       2.0000000000E+01               0
GRID*               1348               02.1621779565E+016.2264388933E+01+
*       2.0000000000E+01               0
GRID*               1349               01.7551958407E+016.1442235051E+01+
*       2.0000000000E+01               0
GRID*               1350               01.5370249268E+015.0293976663E+01+
*       2.0000000000E+01               0
GRID*               1351               09.6829731741E+005.2581153617E+01+
*       2.0000000000E+01               0
GRID*               1352               02.2303394610E+015.3131560741E+01+
*       2.0000000000E+01               0
GRID*               1353               02.4423631896E+015.5252591100E+01+
*       2.0000000000E+01               0
GRID*               1354               01.8233573452E+015.2309406860E+01+
*       2.0000000000E+01               0
GRID*               1355               01.1032005932E+016.6833002211E+01+
*       2.0000000000E+01               0
GRID*               1356               01.6396601138E+017.7029699564E+01+
*       2.0000000000E+01               0
GRID*               1357               07.0873923656E+007.6412734821E+01+
*       2.0000000000E+01               0
GRID*               1358               03.1630206992E+005.7971920777E+01+
*       2.0000000000E+01               0
GRID*               1359               0-3.455824076E+006.0177553830E+01+
*       2.0000000000E+01               0
GRID*               1360               08.2427496345E+006.0825270308E+01+
*       2.0000000000E+01               0
GRID*               1361               0-5.363982627E+007.6412835024E+01+
*       2.0000000000E+01               0
GRID*               1362               0-2.801605987E+017.1958068671E+01+
*       2.0000000000E+01               0
GRID*               1363               0-1.606780648E+017.5466140995E+01+
*       2.0000000000E+01               0
GRID*               1364               0-3.417328705E+017.0160899736E+01+
*       2.0000000000E+01               0
GRID*               1365               0-8.981026690E+006.5269343439E+01+
*       2.0000000000E+01               0
GRID*               1366               04.5594865212E+016.3400906180E+01+
*       2.0000000000E+01               0
GRID*               1367               03.9334984870E+015.4780700021E+01+
*       2.0000000000E+01               0
GRID*               1368               03.5119034151E+017.0133237225E+01+
*       2.0000000000E+01               0
GRID*               1369               03.8261071385E+015.0381364783E+01+
*       2.0000000000E+01               0
GRID*               1370               03.2815758963E+015.6274167848E+01+
*       2.0000000000E+01               0
GRID*               1371               02.9917295906E+015.7049937188E+01+
*       2.0000000000E+01               0
GRID*               1372               02.8396008437E+015.8876156998E+01+
*       2.0000000000E+01               0
GRID*               1373               02.8344805279E+017.3521469160E+01+
*       2.0000000000E+01               0
GRID*               1374               02.7115443576E+016.4061735020E+01+
*       2.0000000000E+01               0
GRID*               1375               0-3.375293108E+015.1857506129E+01+
*       2.0000000000E+01               0
GRID*               1376               0-2.383055244E+013.7880469140E+01+
*       2.0000000000E+01               0
GRID*               1377               0-2.927436332E+013.9784986474E+01+
*       2.0000000000E+01               0
GRID*               1378               0-2.638862054E+013.5982581259E+01+
*       2.0000000000E+01               0
GRID*               1379               0-5.329706337E+018.9619758199E+00+
*       2.0000000000E+01               0
GRID*               1380               0-5.052500936E+017.8137534419E+00+
*       2.0000000000E+01               0
GRID*               1381               0-5.623473962E+011.2865746211E+01+
*       2.0000000000E+01               0
GRID*               1382               0-5.188861635E+011.6193761165E+01+
*       2.0000000000E+01               0
GRID*               1383               0-5.731293396E+011.7084078741E+01+
*       2.0000000000E+01               0
GRID*               1384               0-3.211195387E+013.0678030868E+01+
*       2.0000000000E+01               0
GRID*               1385               0-3.627835879E+012.9949853329E+01+
*       2.0000000000E+01               0
GRID*               1386               0-4.376070670E+013.2595818724E+01+
*       2.0000000000E+01               0
GRID*               1387               0-3.987382424E+012.6114928539E+01+
*       2.0000000000E+01               0
GRID*               1388               0-3.599883634E+013.7158921054E+01+
*       2.0000000000E+01               0
GRID*               1389               0-3.862183017E+012.1077825229E+01+
*       2.0000000000E+01               0
GRID*               1390               0-4.187974064E+011.3986001201E+01+
*       2.0000000000E+01               0
GRID*               1391               0-4.610417808E+012.3723790624E+01+
*       2.0000000000E+01               0
GRID*               1392               0-4.485885964E+011.0630371862E+01+
*       2.0000000000E+01               0
GRID*               1393               0-4.783130301E+011.5331057974E+01+
*       2.0000000000E+01               0
GRID*               1394               0-4.890949735E+011.9549390505E+01+
*       2.0000000000E+01               0
GRID*               1395               0-5.016149142E+012.4586493815E+01+
*       2.0000000000E+01               0
GRID*               1396               0-3.688472761E+015.9329179652E+01+
*       2.0000000000E+01               0
GRID*               1397               0-3.811636729E+015.5858781243E+01+
*       2.0000000000E+01               0
GRID*               1398               0-3.905870976E+016.8761767848E+01+
*       2.0000000000E+01               0
GRID*               1399               0-4.953462599E+016.2029573744E+01+
*       2.0000000000E+01               0
GRID*               1400               0-3.611020751E+015.0046770062E+01+
*       2.0000000000E+01               0
GRID*               1401               0-3.540055431E+014.8116761471E+01+
*       2.0000000000E+01               0
GRID*               1402               0-3.976399052E+015.2118036584E+01+
*       2.0000000000E+01               0
GRID*               1403               0-3.500911711E+014.5142671937E+01+
*       2.0000000000E+01               0
GRID*               1404               0-3.479513108E+014.2096561998E+01+
*       2.0000000000E+01               0
GRID*               1405               0-3.896153599E+014.1368384459E+01+
*       2.0000000000E+01               0
GRID*               1406               0-3.204641745E+014.0933208532E+01+
*       2.0000000000E+01               0
GRID*               1407               0-5.427159205E+015.5332693939E+01+
*       2.0000000000E+01               0
GRID*               1408               0-6.242648334E+014.5921794257E+01+
*       2.0000000000E+01               0
GRID*               1409               0-4.450095658E+014.5421156779E+01+
*       2.0000000000E+01               0
GRID*               1410               0-4.570466184E+014.0483515835E+01+
*       2.0000000000E+01               0
GRID*               1411               0-4.650711637E+015.1233167960E+01+
*       2.0000000000E+01               0
GRID*               1412               0-5.441182313E+012.9309841496E+01+
*       2.0000000000E+01               0
GRID*               1413               0-5.721714241E+012.5135441377E+01+
*       2.0000000000E+01               0
GRID*               1414               0-4.930012729E+013.6648591044E+01+
*       2.0000000000E+01               0
GRID*               1415               0-7.271136019E+012.7255841424E+01+
*       2.0000000000E+01               0
GRID*               1416               0-6.753817918E+013.8583044708E+01+
*       2.0000000000E+01               0
GRID*               1417               0-5.635577828E+013.7197538606E+01+
*       2.0000000000E+01               0
GRID*               1418               0-6.156326568E+012.1807426422E+01+
*       2.0000000000E+01               0
GRID*               1666               0-7.071835911E+01-1.347935233E+01+
*       0.0000000000E+00               0
GRID*               1667               0-6.348658147E+01-7.333210133E+00+
*       0.0000000000E+00               0
GRID*               1668               04.3342540842E+01-6.184862227E+01+
*       0.0000000000E+00               0
GRID*               1669               03.2464066495E+01-5.564973386E+01+
*       0.0000000000E+00               0
GRID*               1670               01.8881091436E+016.5894303481E+01+
*       0.0000000000E+00               0
GRID*               1671               01.7702106752E+015.4528195211E+01+
*       0.0000000000E+00               0
GRID*               1672               0-5.602652436E-01-6.706388108E+01+
*       0.0000000000E+00               0
GRID*               1673               08.1512167941E+00-5.701318204E+01+
*       0.0000000000E+00               0
GRID*               1674               01.5942452993E+01-5.312201586E+01+
*       0.0000000000E+00               0
GRID*               1675               03.4848973396E+01-6.180155054E+01+
*       0.0000000000E+00               0
GRID*               1676               02.1252323638E+01-6.304311017E+01+
*       0.0000000000E+00               0
GRID*               1677               0-3.567081213E+01-4.026860561E+01+
*       0.0000000000E+00               0
GRID*               1678               0-4.507534307E+01-3.457548726E+01+
*       0.0000000000E+00               0
GRID*               1679               0-5.071445744E+01-2.173362257E+01+
*       0.0000000000E+00               0
GRID*               1680               0-5.256183192E+01-1.233346786E+01+
*       0.0000000000E+00               0
GRID*               1681               0-3.386463101E+01-3.268025139E+01+
*       0.0000000000E+00               0
GRID*               1682               0-4.147652526E+01-2.490442694E+01+
*       0.0000000000E+00               0
GRID*               1683               0-4.436251957E+01-1.516068938E+01+
*       0.0000000000E+00               0
GRID*               1684               0-4.844444162E+01-7.632975782E+00+
*       0.0000000000E+00               0
GRID*               1685               0-1.987650008E+01-6.447314816E+01+
*       0.0000000000E+00               0
GRID*               1686               0-1.220899776E+00-5.505954893E+01+
*       0.0000000000E+00               0
GRID*               1687               0-1.066141081E+01-5.644336937E+01+
*       0.0000000000E+00               0
GRID*               1688               06.1927967084E+00-4.951894877E+01+
*       0.0000000000E+00               0
GRID*               1689               0-9.721633271E+00-4.691112106E+01+
*       0.0000000000E+00               0
GRID*               1690               0-4.179217402E+01-5.766915603E+01+
*       0.0000000000E+00               0
GRID*               1691               0-5.954900219E+01-1.523820582E+01+
*       0.0000000000E+00               0
GRID*               1692               0-6.231323128E+01-2.914724944E+01+
*       0.0000000000E+00               0
GRID*               1693               0-5.795210927E+01-8.768508646E+00+
*       0.0000000000E+00               0
GRID*               1694               0-5.315203366E+01-4.679268376E+01+
*       0.0000000000E+00               0
GRID*               1695               0-4.002709232E+01-4.606766270E+01+
*       0.0000000000E+00               0
GRID*               1696               0-3.113791323E+01-6.009886402E+01+
*       0.0000000000E+00               0
GRID*               1697               07.0087260304E+011.3101917280E+01+
*       0.0000000000E+00               0
GRID*               1698               06.2335093027E+016.6557385354E+00+
*       0.0000000000E+00               0
GRID*               1699               03.7882498446E+013.9072486148E+01+
*       0.0000000000E+00               0
GRID*               1700               04.3794268436E+013.1194863163E+01+
*       0.0000000000E+00               0
GRID*               1701               05.0839640477E+012.4292861429E+01+
*       0.0000000000E+00               0
GRID*               1702               05.0209541044E+011.6245386230E+01+
*       0.0000000000E+00               0
GRID*               1703               03.4500632736E+013.1570702500E+01+
*       0.0000000000E+00               0
GRID*               1704               04.3003640788E+012.2479813360E+01+
*       0.0000000000E+00               0
GRID*               1705               04.5057904189E+011.1455295143E+01+
*       0.0000000000E+00               0
GRID*               1706               0-3.234992695E+016.1774963173E+01+
*       0.0000000000E+00               0
GRID*               1707               0-3.130049103E+015.5131460605E+01+
*       0.0000000000E+00               0
GRID*               1708               0-5.502428186E+014.8056028778E+01+
*       0.0000000000E+00               0
GRID*               1709               0-4.426837825E+014.8341789049E+01+
*       0.0000000000E+00               0
GRID*               1710               0-3.812865382E+014.4518740587E+01+
*       0.0000000000E+00               0
GRID*               1711               0-5.232602335E+011.2966102364E+01+
*       0.0000000000E+00               0
GRID*               1712               0-4.493022642E+012.2441009322E+01+
*       0.0000000000E+00               0
GRID*               1713               0-3.511844680E+013.4179966324E+01+
*       0.0000000000E+00               0
GRID*               1714               0-4.444332223E+011.1417743295E+01+
*       0.0000000000E+00               0
GRID*               1715               0-6.574767536E+011.1258690422E+01+
*       0.0000000000E+00               0
GRID*               1716               0-6.959166194E+01-2.626620123E+00+
*       0.0000000000E+00               0
GRID*               1717               0-6.366818481E+01-8.755933242E-01+
*       0.0000000000E+00               0
GRID*               1718               0-4.785638072E+013.6019764993E+01+
*       0.0000000000E+00               0
GRID*               1719               0-5.462078380E+012.2940227454E+01+
*       0.0000000000E+00               0
GRID*               1720               0-6.331775480E+013.1985822168E+01+
*       0.0000000000E+00               0
GRID*               1721               0-4.394406368E+015.8931329135E+01+
*       0.0000000000E+00               0
GRID*               1722               0-3.722545616E+015.3007371360E+01+
*       0.0000000000E+00               0
GRID*               1723               01.7237394218E+014.4894009630E+01+
*       0.0000000000E+00               0
GRID*               1724               07.6992680868E+004.5693820735E+01+
*       0.0000000000E+00               0
GRID*               1725               0-6.320084625E+004.9161305035E+01+
*       0.0000000000E+00               0
GRID*               1726               0-1.648331302E+015.1029858165E+01+
*       0.0000000000E+00               0
GRID*               1727               01.4258369764E+014.9829103559E+01+
*       0.0000000000E+00               0
GRID*               1728               05.3001556299E+005.6067945359E+01+
*       0.0000000000E+00               0
GRID*               1729               0-1.251538587E+015.7892828105E+01+
*       0.0000000000E+00               0
GRID*               1730               0-2.477989642E+015.8006110090E+01+
*       0.0000000000E+00               0
GRID*               1731               0-1.555572085E+007.0124653287E+01+
*       0.0000000000E+00               0
GRID*               1732               0-1.996362785E+016.8754193043E+01+
*       0.0000000000E+00               0
GRID*               1733               04.5983264412E+015.3713983226E+01+
*       0.0000000000E+00               0
GRID*               1734               03.8848233692E+015.0404370738E+01+
*       0.0000000000E+00               0
GRID*               1735               03.6189717157E+016.0130949971E+01+
*       0.0000000000E+00               0
GRID*               1736               06.1291785413E+013.0361280612E+01+
*       0.0000000000E+00               0
GRID*               1737               05.8086812620E+011.5905609394E+01+
*       0.0000000000E+00               0
GRID*               1738               05.0114071618E+013.1066910863E+01+
*       0.0000000000E+00               0
GRID*               1739               04.7254540079E+013.8917916214E+01+
*       0.0000000000E+00               0
GRID*               1740               04.5236274182E+014.7044858314E+01+
*       0.0000000000E+00               0
GRID*               1741               05.4933431327E+014.7053305135E+01+
*       0.0000000000E+00               0
GRID*               1742               04.0377429865E+014.4465231746E+01+
*       0.0000000000E+00               0
GRID*               1743               05.6606609502E+01-4.664950392E+01+
*       0.0000000000E+00               0
GRID*               1744               04.6465078353E+01-4.510106405E+01+
*       0.0000000000E+00               0
GRID*               1745               03.8320450677E+01-4.356774593E+01+
*       0.0000000000E+00               0
GRID*               1746               05.3204666986E+01-1.007134482E+01+
*       0.0000000000E+00               0
GRID*               1747               04.6085962350E+01-1.269838457E+01+
*       0.0000000000E+00               0
GRID*               1748               04.4312964182E+01-2.499608509E+01+
*       0.0000000000E+00               0
GRID*               1749               03.4353281804E+01-3.443793005E+01+
*       0.0000000000E+00               0
GRID*               1750               06.8296526408E+01-1.312342539E+01+
*       0.0000000000E+00               0
GRID*               1751               06.2279931091E+01-5.003914856E+00+
*       0.0000000000E+00               0
GRID*               1752               06.8330891394E+014.7311134558E-01+
*       0.0000000000E+00               0
GRID*               1753               06.2439499903E+016.7641983830E-01+
*       0.0000000000E+00               0
GRID*               1754               05.1414347428E+01-2.991891784E+01+
*       0.0000000000E+00               0
GRID*               1755               05.1990486891E+01-3.787892544E+01+
*       0.0000000000E+00               0
GRID*               1756               04.4512405320E+01-3.604223578E+01+
*       0.0000000000E+00               0
GRID*               1757               05.4813343265E+01-1.900240471E+01+
*       0.0000000000E+00               0
GRID*               1758               06.2914896285E+01-3.122692240E+01+
*       0.0000000000E+00               0
GRID*               1759               05.8667219694E+01-1.025704533E+01+
*       0.0000000000E+00               0
GRID*               1760               03.9583048110E+01-5.304235036E+01+
*       0.0000000000E+00               0
GRID*               1761               04.8232657761E+01-5.412890730E+01+
*       0.0000000000E+00               0
GRID*               1762               03.9095757119E+01-6.182508640E+01+
*       0.0000000000E+00               0
GRID*               1763               03.7216010753E+01-5.742195045E+01+
*       0.0000000000E+00               0
GRID*               1764               04.1462794476E+01-5.744548631E+01+
*       0.0000000000E+00               0
GRID*               1765               03.9845468348E+01-7.072079682E+01+
*       0.0000000000E+00               0
GRID*               1766               05.0321299409E+01-6.398846577E+01+
*       0.0000000000E+00               0
GRID*               1767               03.5598684625E+01-7.069726095E+01+
*       0.0000000000E+00               0
GRID*               1768               02.6858195067E+01-5.934642202E+01+
*       0.0000000000E+00               0
GRID*               1769               02.5153702047E+01-5.823474101E+01+
*       0.0000000000E+00               0
GRID*               1770               03.0759573476E+01-5.453805286E+01+
*       0.0000000000E+00               0
GRID*               1771               03.3656519945E+01-5.872564220E+01+
*       0.0000000000E+00               0
GRID*               1772               02.8050648517E+01-6.242233036E+01+
*       0.0000000000E+00               0
GRID*               1773               01.8597388316E+01-5.808256301E+01+
*       0.0000000000E+00               0
GRID*               1774               01.4701770216E+01-6.002814611E+01+
*       0.0000000000E+00               0
GRID*               1775               01.2046834894E+01-5.506759895E+01+
*       0.0000000000E+00               0
GRID*               1776               02.2255238955E+01-5.745897127E+01+
*       0.0000000000E+00               0
GRID*               1777               01.9600303632E+01-5.249842411E+01+
*       0.0000000000E+00               0
GRID*               1778               05.9458611544E+00-7.683665650E+01+
*       0.0000000000E+00               0
GRID*               1779               0-6.506740785E+00-7.683658042E+01+
*       0.0000000000E+00               0
GRID*               1780               02.8800359746E+01-7.131804077E+01+
*       0.0000000000E+00               0
GRID*               1781               01.6852155595E+01-7.482627105E+01+
*       0.0000000000E+00               0
GRID*               1782               01.0346029197E+01-6.505349563E+01+
*       0.0000000000E+00               0
GRID*               1783               03.7954757752E+00-6.203853156E+01+
*       0.0000000000E+00               0
GRID*               1784               01.8823448985E+01-4.960024955E+01+
*       0.0000000000E+00               0
GRID*               1785               0-2.607737495E+01-3.364314588E+01+
*       0.0000000000E+00               0
GRID*               1786               0-2.328691172E+01-3.814445717E+01+
*       0.0000000000E+00               0
GRID*               1787               0-3.107416779E+01-3.718156267E+01+
*       0.0000000000E+00               0
GRID*               1788               0-3.350361220E+01-2.675256123E+01+
*       0.0000000000E+00               0
GRID*               1789               0-3.767057814E+01-2.879233916E+01+
*       0.0000000000E+00               0
GRID*               1790               0-3.730955932E+01-2.286464900E+01+
*       0.0000000000E+00               0
GRID*               1791               0-4.428571034E+01-1.880276539E+00+
*       0.0000000000E+00               0
GRID*               1792               0-4.377957001E+01-4.548714241E+00+
*       0.0000000000E+00               0
GRID*               1793               0-4.895058194E+01-4.964538080E+00+
*       0.0000000000E+00               0
GRID*               1794               0-4.467714756E+011.0938127747E+00+
*       0.0000000000E+00               0
GRID*               1795               0-3.875255648E+01-1.799278022E+01+
*       0.0000000000E+00               0
GRID*               1796               0-4.291952242E+01-2.003255816E+01+
*       0.0000000000E+00               0
GRID*               1797               0-4.173860899E+01-8.312571041E+00+
*       0.0000000000E+00               0
GRID*               1798               0-4.640348059E+01-1.139683258E+01+
*       0.0000000000E+00               0
GRID*               1799               0-5.133036836E+01-6.790749382E+00+
*       0.0000000000E+00               0
GRID*               1800               0-5.050313677E+01-9.983221822E+00+
*       0.0000000000E+00               0
GRID*               1801               0-5.338906351E+01-9.140995422E+00+
*       0.0000000000E+00               0
GRID*               1802               0-4.846217575E+01-1.374707862E+01+
*       0.0000000000E+00               0
GRID*               1803               0-4.753848850E+01-1.844715597E+01+
*       0.0000000000E+00               0
GRID*               1804               0-5.163814468E+01-1.703354521E+01+
*       0.0000000000E+00               0
GRID*               1805               0-4.609549135E+01-2.331902475E+01+
*       0.0000000000E+00               0
GRID*               1806               0-4.327593416E+01-2.973995710E+01+
*       0.0000000000E+00               0
GRID*               1807               0-4.789490025E+01-2.815455491E+01+
*       0.0000000000E+00               0
GRID*               1808               0-3.197725835E+01-4.097573978E+01+
*       0.0000000000E+00               0
GRID*               1809               0-3.476772157E+01-3.647442850E+01+
*       0.0000000000E+00               0
GRID*               1810               0-3.435704487E+01-4.280195096E+01+
*       0.0000000000E+00               0
GRID*               1811               0-3.946998704E+01-3.362786932E+01+
*       0.0000000000E+00               0
GRID*               1812               0-4.037307760E+01-3.742204643E+01+
*       0.0000000000E+00               0
GRID*               1813               02.1264658020E+01-3.961053831E+01+
*       0.0000000000E+00               0
GRID*               1814               01.1584448838E+01-4.259659083E+01+
*       0.0000000000E+00               0
GRID*               1815               02.3384895384E+01-3.748950825E+01+
*       0.0000000000E+00               0
GRID*               1816               01.3948620842E+01-4.779871601E+01+
*       0.0000000000E+00               0
GRID*               1817               01.1067624851E+01-5.132048231E+01+
*       0.0000000000E+00               0
GRID*               1818               03.8286247039E+00-4.431682359E+01+
*       0.0000000000E+00               0
GRID*               1819               0-2.051485759E+01-3.929267957E+01+
*       0.0000000000E+00               0
GRID*               1820               0-1.400587608E+01-4.075858072E+01+
*       0.0000000000E+00               0
GRID*               1821               0-1.623061479E+01-4.544521991E+01+
*       0.0000000000E+00               0
GRID*               1822               0-4.128590286E+00-4.301290974E+01+
*       0.0000000000E+00               0
GRID*               1823               0-1.764418281E+00-4.821503492E+01+
*       0.0000000000E+00               0
GRID*               1824               07.1720067513E+00-5.326606541E+01+
*       0.0000000000E+00               0
GRID*               1825               03.4651585092E+00-5.603636549E+01+
*       0.0000000000E+00               0
GRID*               1826               02.4859484664E+00-5.228924885E+01+
*       0.0000000000E+00               0
GRID*               1827               0-1.583917777E+01-4.841930946E+01+
*       0.0000000000E+00               0
GRID*               1828               0-1.019152204E+01-5.167724522E+01+
*       0.0000000000E+00               0
GRID*               1829               0-1.630906653E+01-5.318543362E+01+
*       0.0000000000E+00               0
GRID*               1830               0-5.471266523E+00-5.098533500E+01+
*       0.0000000000E+00               0
GRID*               1831               0-5.941155292E+00-5.575145915E+01+
*       0.0000000000E+00               0
GRID*               1832               0-1.021838266E+01-6.576851462E+01+
*       0.0000000000E+00               0
GRID*               1833               0-1.616485820E+01-7.554121396E+01+
*       0.0000000000E+00               0
GRID*               1834               0-2.091661117E+01-5.720032301E+01+
*       0.0000000000E+00               0
GRID*               1835               0-2.329639783E+01-5.902653417E+01+
*       0.0000000000E+00               0
GRID*               1836               0-1.526895544E+01-6.045825877E+01+
*       0.0000000000E+00               0
GRID*               1837               0-8.905825096E-01-6.106171500E+01+
*       0.0000000000E+00               0
GRID*               1838               0-5.610838026E+00-6.175362523E+01+
*       0.0000000000E+00               0
GRID*               1839               0-7.313458801E+01-2.689888226E+01+
*       0.0000000000E+00               0
GRID*               1840               0-6.796172792E+01-3.822623210E+01+
*       0.0000000000E+00               0
GRID*               1841               0-7.733715193E+01-1.906493370E+01+
*       0.0000000000E+00               0
GRID*               1842               0-6.651579519E+01-2.131330089E+01+
*       0.0000000000E+00               0
GRID*               1843               0-5.608420219E+01-7.358515814E+00+
*       0.0000000000E+00               0
GRID*               1844               0-5.885625600E+01-6.210293342E+00+
*       0.0000000000E+00               0
GRID*               1845               0-5.525697060E+01-1.055098825E+01+
*       0.0000000000E+00               0
GRID*               1846               0-5.605541705E+01-1.378583684E+01+
*       0.0000000000E+00               0
GRID*               1847               0-5.875055573E+01-1.200335723E+01+
*       0.0000000000E+00               0
GRID*               1848               0-6.071934537E+01-8.050859389E+00+
*       0.0000000000E+00               0
GRID*               1849               0-6.162349209E+01-5.492644085E+00+
*       0.0000000000E+00               0
GRID*               1850               0-6.513368065E+01-1.435877907E+01+
*       0.0000000000E+00               0
GRID*               1851               0-6.093111673E+01-2.219272763E+01+
*       0.0000000000E+00               0
GRID*               1852               0-6.710247029E+01-1.040628123E+01+
*       0.0000000000E+00               0
GRID*               1853               0-6.151779183E+01-1.128570797E+01+
*       0.0000000000E+00               0
GRID*               1854               0-5.513172981E+01-1.848591419E+01+
*       0.0000000000E+00               0
GRID*               1855               0-5.651384436E+01-2.544043600E+01+
*       0.0000000000E+00               0
GRID*               1856               0-5.369428717E+01-3.186136835E+01+
*       0.0000000000E+00               0
GRID*               1857               0-3.614374782E+01-4.867556886E+01+
*       0.0000000000E+00               0
GRID*               1858               0-3.653518496E+01-4.570147950E+01+
*       0.0000000000E+00               0
GRID*               1859               0-3.702628867E+01-5.447631553E+01+
*       0.0000000000E+00               0
GRID*               1860               0-4.090963317E+01-5.186840937E+01+
*       0.0000000000E+00               0
GRID*               1861               0-5.522650448E+01-5.646007999E+01+
*       0.0000000000E+00               0
GRID*               1862               0-6.338112911E+01-4.704894926E+01+
*       0.0000000000E+00               0
GRID*               1863               0-4.747210384E+01-5.223091990E+01+
*       0.0000000000E+00               0
GRID*               1864               0-4.658956299E+01-4.643017323E+01+
*       0.0000000000E+00               0
GRID*               1865               0-4.954657465E+01-6.189831613E+01+
*       0.0000000000E+00               0
GRID*               1866               0-3.784895222E+01-4.316813416E+01+
*       0.0000000000E+00               0
GRID*               1867               0-5.773263247E+01-3.796996660E+01+
*       0.0000000000E+00               0
GRID*               1868               0-4.911368837E+01-4.068408551E+01+
*       0.0000000000E+00               0
GRID*               1869               0-4.255121769E+01-4.032157498E+01+
*       0.0000000000E+00               0
GRID*               1870               0-2.811301221E+01-7.203280313E+01+
*       0.0000000000E+00               0
GRID*               1871               0-3.907084918E+01-6.863080706E+01+
*       0.0000000000E+00               0
GRID*               1872               0-3.374371878E+01-6.984566106E+01+
*       0.0000000000E+00               0
GRID*               1873               0-2.550720665E+01-6.228600609E+01+
*       0.0000000000E+00               0
GRID*               1874               0-3.646504362E+01-5.888401003E+01+
*       0.0000000000E+00               0
GRID*               1875               0-2.892710440E+01-5.683939210E+01+
*       0.0000000000E+00               0
GRID*               1876               0-3.169915828E+01-5.569116952E+01+
*       0.0000000000E+00               0
GRID*               1877               0-2.377058314E+013.7412733869E+01+
*       0.0000000000E+00               0
GRID*               1878               0-2.797165893E+013.3661279854E+01+
*       0.0000000000E+00               0
GRID*               1879               0-3.091737101E+013.7931420340E+01+
*       0.0000000000E+00               0
GRID*               1880               0-2.139079666E+013.9238945007E+01+
*       0.0000000000E+00               0
GRID*               1881               0-3.486224359E+012.6235042603E+01+
*       0.0000000000E+00               0
GRID*               1882               0-3.976813340E+012.0365564102E+01+
*       0.0000000000E+00               0
GRID*               1883               0-4.002433661E+012.8310487823E+01+
*       0.0000000000E+00               0
GRID*               1884               0-5.128281003E+018.3090903064E+00+
*       0.0000000000E+00               0
GRID*               1885               0-5.405486404E+019.4573126844E+00+
*       0.0000000000E+00               0
GRID*               1886               0-4.177901032E+014.9766452975E+00+
*       0.0000000000E+00               0
GRID*               1887               0-3.952468131E+011.4853931089E+01+
*       0.0000000000E+00               0
GRID*               1888               0-4.734145947E+017.5349107716E+00+
*       0.0000000000E+00               0
GRID*               1889               0-4.838467279E+011.2191922829E+01+
*       0.0000000000E+00               0
GRID*               1890               0-4.468677433E+011.6929376308E+01+
*       0.0000000000E+00               0
GRID*               1891               0-4.862812489E+011.7703555843E+01+
*       0.0000000000E+00               0
GRID*               1892               0-7.015501052E+01-8.052986228E+00+
*       0.0000000000E+00               0
GRID*               1893               0-6.653912170E+01-4.979915128E+00+
*       0.0000000000E+00               0
GRID*               1894               0-7.910916410E+01-6.739056380E+00+
*       0.0000000000E+00               0
GRID*               1895               0-7.854581551E+01-1.312690275E+00+
*       0.0000000000E+00               0
GRID*               1896               0-6.357738314E+01-4.104401728E+00+
*       0.0000000000E+00               0
GRID*               1897               0-6.662992337E+01-1.751106724E+00+
*       0.0000000000E+00               0
GRID*               1898               0-6.171429377E+01-2.263835681E+00+
*       0.0000000000E+00               0
GRID*               1899               0-6.210573128E+017.1025352689E-01+
*       0.0000000000E+00               0
GRID*               1900               0-7.662382222E+015.6299649980E+00+
*       0.0000000000E+00               0
GRID*               1901               0-6.766966865E+014.3160351494E+00+
*       0.0000000000E+00               0
GRID*               1902               0-7.485146081E+011.7955792106E+01+
*       0.0000000000E+00               0
GRID*               1903               0-6.470793009E+015.1915485488E+00+
*       0.0000000000E+00               0
GRID*               1904               0-6.314547655E+016.7773954000E+00+
*       0.0000000000E+00               0
GRID*               1905               0-3.368942514E+013.9079642397E+01+
*       0.0000000000E+00               0
GRID*               1906               0-3.662355031E+013.9349353456E+01+
*       0.0000000000E+00               0
GRID*               1907               0-3.519452865E+014.4249029529E+01+
*       0.0000000000E+00               0
GRID*               1908               0-4.148741376E+013.5099865659E+01+
*       0.0000000000E+00               0
GRID*               1909               0-4.639330357E+012.9230387157E+01+
*       0.0000000000E+00               0
GRID*               1910               0-4.606237948E+014.2180777021E+01+
*       0.0000000000E+00               0
GRID*               1911               0-5.144033129E+014.2037896886E+01+
*       0.0000000000E+00               0
GRID*               1912               0-4.964633006E+014.8198908913E+01+
*       0.0000000000E+00               0
GRID*               1913               0-4.299251727E+014.0269252790E+01+
*       0.0000000000E+00               0
GRID*               1914               0-4.119851603E+014.6430264818E+01+
*       0.0000000000E+00               0
GRID*               1915               0-4.977550511E+012.2690618388E+01+
*       0.0000000000E+00               0
GRID*               1916               0-5.123858226E+012.9479996223E+01+
*       0.0000000000E+00               0
GRID*               1917               0-5.347340358E+011.7953164909E+01+
*       0.0000000000E+00               0
GRID*               1918               0-5.917101833E+014.0020925473E+01+
*       0.0000000000E+00               0
GRID*               1919               0-6.846331952E+013.9646561263E+01+
*       0.0000000000E+00               0
GRID*               1920               0-6.431658306E+014.7681664569E+01+
*       0.0000000000E+00               0
GRID*               1921               0-5.558706776E+013.4002793581E+01+
*       0.0000000000E+00               0
GRID*               1922               0-5.896926930E+012.7463024811E+01+
*       0.0000000000E+00               0
GRID*               1923               0-7.363650053E+012.8319357979E+01+
*       0.0000000000E+00               0
GRID*               1924               0-6.453271508E+012.1622256295E+01+
*       0.0000000000E+00               0
GRID*               1925               0-6.076569004E+018.6036067133E+00+
*       0.0000000000E+00               0
GRID*               1926               0-5.903684936E+011.2112396393E+01+
*       0.0000000000E+00               0
GRID*               1927               0-6.018422958E+011.7099458938E+01+
*       0.0000000000E+00               0
GRID*               1928               0-3.814699532E+016.0353146154E+01+
*       0.0000000000E+00               0
GRID*               1929               0-3.478769155E+015.7391167266E+01+
*       0.0000000000E+00               0
GRID*               1930               0-4.058475992E+015.5969350248E+01+
*       0.0000000000E+00               0
GRID*               1931               0-4.014566645E+016.9262408534E+01+
*       0.0000000000E+00               0
GRID*               1932               0-5.062158268E+016.2530214429E+01+
*       0.0000000000E+00               0
GRID*               1933               0-3.434859808E+017.0684225552E+01+
*       0.0000000000E+00               0
GRID*               1934               0-3.426297359E+015.4069415982E+01+
*       0.0000000000E+00               0
GRID*               1935               0-3.182520899E+015.8453211889E+01+
*       0.0000000000E+00               0
GRID*               1936               0-3.558596585E+014.7223119063E+01+
*       0.0000000000E+00               0
GRID*               1937               0-3.513436702E+015.1467434449E+01+
*       0.0000000000E+00               0
GRID*               1938               0-3.217188445E+015.2529479071E+01+
*       0.0000000000E+00               0
GRID*               1939               0-3.767705499E+014.8763055974E+01+
*       0.0000000000E+00               0
GRID*               1940               0-4.074691720E+015.0674580204E+01+
*       0.0000000000E+00               0
GRID*               1941               0-5.616169177E+015.7092564250E+01+
*       0.0000000000E+00               0
GRID*               1942               0-4.948417277E+015.3493678957E+01+
*       0.0000000000E+00               0
GRID*               1943               0-4.410622096E+015.3636559092E+01+
*       0.0000000000E+00               0
GRID*               1944               04.4285710335E+011.8802765387E+00+
*       0.0000000000E+00               0
GRID*               1945               04.2086301300E+016.4598739213E+00+
*       0.0000000000E+00               0
GRID*               1946               04.7257313224E+016.8756977606E+00+
*       0.0000000000E+00               0
GRID*               1947               04.4677147562E+01-1.093812775E+00+
*       0.0000000000E+00               0
GRID*               1948               03.9100248786E+011.6140083103E+01+
*       0.0000000000E+00               0
GRID*               1949               03.8073117086E+012.1652342212E+01+
*       0.0000000000E+00               0
GRID*               1950               04.4030772488E+011.6967554252E+01+
*       0.0000000000E+00               0
GRID*               1951               02.3672599840E+013.8221231558E+01+
*       0.0000000000E+00               0
GRID*               1952               02.0774136285E+013.8997000596E+01+
*       0.0000000000E+00               0
GRID*               1953               03.1777856766E+013.6703562618E+01+
*       0.0000000000E+00               0
GRID*               1954               02.6395375809E+013.3088371440E+01+
*       0.0000000000E+00               0
GRID*               1955               03.3821613060E+012.6197786781E+01+
*       0.0000000000E+00               0
GRID*               1956               03.8752136762E+012.7025257930E+01+
*       0.0000000000E+00               0
GRID*               1957               0-2.979209797E+015.4355690550E+01+
*       0.0000000000E+00               0
GRID*               1958               01.9470919506E+014.7039160101E+01+
*       0.0000000000E+00               0
GRID*               1959               02.0247773953E+014.4140985221E+01+
*       0.0000000000E+00               0
GRID*               1960               01.5980238258E+015.2178649385E+01+
*       0.0000000000E+00               0
GRID*               1961               01.9703275773E+015.1856252891E+01+
*       0.0000000000E+00               0
GRID*               1962               01.7981407279E+014.9506707065E+01+
*       0.0000000000E+00               0
GRID*               1963               09.7792626969E+005.2948524459E+01+
*       0.0000000000E+00               0
GRID*               1964               01.1501131191E+015.5298070285E+01+
*       0.0000000000E+00               0
GRID*               1965               01.8291599094E+016.0211249346E+01+
*       0.0000000000E+00               0
GRID*               1966               01.2090623533E+016.0981124420E+01+
*       0.0000000000E+00               0
GRID*               1967               01.8722917724E+006.3096299323E+01+
*       0.0000000000E+00               0
GRID*               1968               0-3.607615120E+005.6980386732E+01+
*       0.0000000000E+00               0
GRID*               1969               0-7.035478977E+006.4008740696E+01+
*       0.0000000000E+00               0
GRID*               1970               08.6627596752E+006.8009478384E+01+
*       0.0000000000E+00               0
GRID*               1971               05.4482077433E+007.8367042730E+01+
*       0.0000000000E+00               0
GRID*               1972               01.5666539504E+017.6251867827E+01+
*       0.0000000000E+00               0
GRID*               1973               0-7.003167250E+007.8367142934E+01+
*       0.0000000000E+00               0
GRID*               1974               0-2.815544853E+017.4173840487E+01+
*       0.0000000000E+00               0
GRID*               1975               0-1.620719513E+017.7681912812E+01+
*       0.0000000000E+00               0
GRID*               1976               0-2.615677740E+016.5264578108E+01+
*       0.0000000000E+00               0
GRID*               1977               0-2.237176213E+016.3380151566E+01+
*       0.0000000000E+00               0
GRID*               1978               0-2.856491168E+015.9890536631E+01+
*       0.0000000000E+00               0
GRID*               1979               0-1.075959997E+016.9439423165E+01+
*       0.0000000000E+00               0
GRID*               1980               0-1.623950686E+016.3323510574E+01+
*       0.0000000000E+00               0
GRID*               1981               0-1.864764114E+015.7949469097E+01+
*       0.0000000000E+00               0
GRID*               1982               01.5747881991E+014.7361556594E+01+
*       0.0000000000E+00               0
GRID*               1983               01.2468331153E+014.5293915183E+01+
*       0.0000000000E+00               0
GRID*               1984               01.0978818925E+014.7761462147E+01+
*       0.0000000000E+00               0
GRID*               1985               06.4997118583E+005.0880883047E+01+
*       0.0000000000E+00               0
GRID*               1986               06.8959173106E-014.7427562885E+01+
*       0.0000000000E+00               0
GRID*               1987               0-5.099644974E-015.2614625197E+01+
*       0.0000000000E+00               0
GRID*               1988               0-2.804019372E+015.6568785347E+01+
*       0.0000000000E+00               0
GRID*               1989               0-2.653180067E+015.5793015292E+01+
*       0.0000000000E+00               0
GRID*               1990               0-2.375974665E+015.4644792699E+01+
*       0.0000000000E+00               0
GRID*               1991               0-1.762749138E+015.4588151707E+01+
*       0.0000000000E+00               0
GRID*               1992               0-1.449934944E+015.4461343135E+01+
*       0.0000000000E+00               0
GRID*               1993               0-1.961145495E+015.1156666736E+01+
*       0.0000000000E+00               0
GRID*               1994               0-9.417735247E+005.3527066570E+01+
*       0.0000000000E+00               0
GRID*               1995               0-1.140169882E+015.0095581600E+01+
*       0.0000000000E+00               0
GRID*               1996               0-1.922001764E+014.8182577398E+01+
*       0.0000000000E+00               0
GRID*               1997               0-1.171058748E+014.2224997521E+01+
*       0.0000000000E+00               0
GRID*               1998               0-1.413840344E+014.7248300833E+01+
*       0.0000000000E+00               0
GRID*               1999               0-3.892268662E+004.4138001723E+01+
*       0.0000000000E+00               0
GRID*               2000               03.1174076937E+004.2404259573E+01+
*       0.0000000000E+00               0
GRID*               2001               01.7763756551E+013.9750025005E+01+
*       0.0000000000E+00               0
GRID*               2002               01.2994693485E+014.0149930557E+01+
*       0.0000000000E+00               0
GRID*               2003               03.3468789622E+014.0454454442E+01+
*       0.0000000000E+00               0
GRID*               2004               03.6191565591E+013.5321594324E+01+
*       0.0000000000E+00               0
GRID*               2005               03.5589026781E+014.2575484865E+01+
*       0.0000000000E+00               0
GRID*               2006               04.9637099647E+018.7019090627E+00+
*       0.0000000000E+00               0
GRID*               2007               04.7633722616E+011.3850340687E+01+
*       0.0000000000E+00               0
GRID*               2008               05.2212918075E+011.1096954606E+01+
*       0.0000000000E+00               0
GRID*               2009               03.9147450586E+013.1382782831E+01+
*       0.0000000000E+00               0
GRID*               2010               04.0838383441E+013.5133674656E+01+
*       0.0000000000E+00               0
GRID*               2011               04.6606590916E+011.9362599795E+01+
*       0.0000000000E+00               0
GRID*               2012               04.6921640632E+012.3386337395E+01+
*       0.0000000000E+00               0
GRID*               2013               05.0524590761E+012.0269123830E+01+
*       0.0000000000E+00               0
GRID*               2014               04.3398954612E+012.6837338261E+01+
*       0.0000000000E+00               0
GRID*               2015               04.7316954457E+012.7743862296E+01+
*       0.0000000000E+00               0
GRID*               2016               02.1823513058E+015.3977283251E+01+
*       0.0000000000E+00               0
GRID*               2017               04.1086490784E+015.6922466599E+01+
*       0.0000000000E+00               0
GRID*               2018               04.2415749052E+015.2059176982E+01+
*       0.0000000000E+00               0
GRID*               2019               03.7518975424E+015.5267660355E+01+
*       0.0000000000E+00               0
GRID*               2020               04.6744887566E+016.3129629623E+01+
*       0.0000000000E+00               0
GRID*               2021               03.6269056505E+016.9861960668E+01+
*       0.0000000000E+00               0
GRID*               2022               05.1641661194E+015.9921146251E+01+
*       0.0000000000E+00               0
GRID*               2023               03.3965781318E+015.6002891290E+01+
*       0.0000000000E+00               0
GRID*               2024               03.5295039585E+015.1139601674E+01+
*       0.0000000000E+00               0
GRID*               2025               03.1067318260E+015.6778660631E+01+
*       0.0000000000E+00               0
GRID*               2026               02.7614743645E+017.2743637422E+01+
*       0.0000000000E+00               0
GRID*               2027               02.7535404296E+016.3012626726E+01+
*       0.0000000000E+00               0
GRID*               2028               02.2413005400E+015.9660337386E+01+
*       0.0000000000E+00               0
GRID*               2029               07.2623682984E+012.7506490577E+01+
*       0.0000000000E+00               0
GRID*               2030               06.7450661680E+013.8833763179E+01+
*       0.0000000000E+00               0
GRID*               2031               06.4087036462E+011.4503763337E+01+
*       0.0000000000E+00               0
GRID*               2032               06.6211176666E+019.8788279078E+00+
*       0.0000000000E+00               0
GRID*               2033               06.0210952823E+011.1280673965E+01+
*       0.0000000000E+00               0
GRID*               2034               06.5689522859E+012.1731598946E+01+
*       0.0000000000E+00               0
GRID*               2035               07.7021420430E+011.8876808911E+01+
*       0.0000000000E+00               0
GRID*               2036               05.9689299016E+012.3133445003E+01+
*       0.0000000000E+00               0
GRID*               2037               05.4148176832E+011.6075497812E+01+
*       0.0000000000E+00               0
GRID*               2038               05.6151553863E+011.0927066188E+01+
*       0.0000000000E+00               0
GRID*               2039               05.6065712945E+012.7327071020E+01+
*       0.0000000000E+00               0
GRID*               2040               05.4463226548E+012.0099235412E+01+
*       0.0000000000E+00               0
GRID*               2041               05.8275694062E+016.3021307751E+00+
*       0.0000000000E+00               0
GRID*               2042               06.1047748000E+015.1539083747E+00+
*       0.0000000000E+00               0
GRID*               2043               05.0476856048E+012.7679886146E+01+
*       0.0000000000E+00               0
GRID*               2044               04.6954170027E+013.1130887013E+01+
*       0.0000000000E+00               0
GRID*               2045               05.5702928516E+013.0714095737E+01+
*       0.0000000000E+00               0
GRID*               2046               06.4271484637E+014.7179775440E+01+
*       0.0000000000E+00               0
GRID*               2047               05.6116744652E+015.6590807205E+01+
*       0.0000000000E+00               0
GRID*               2048               05.0458347870E+015.0383644181E+01+
*       0.0000000000E+00               0
GRID*               2049               05.0084852754E+014.7049081724E+01+
*       0.0000000000E+00               0
GRID*               2050               04.5609769297E+015.0379420770E+01+
*       0.0000000000E+00               0
GRID*               2051               05.1093985703E+014.2985610675E+01+
*       0.0000000000E+00               0
GRID*               2052               04.6245407130E+014.2981387264E+01+
*       0.0000000000E+00               0
GRID*               2053               05.8112608370E+013.8707292873E+01+
*       0.0000000000E+00               0
GRID*               2054               05.4273162746E+013.4639598413E+01+
*       0.0000000000E+00               0
GRID*               2055               04.8684305849E+013.4992413539E+01+
*       0.0000000000E+00               0
GRID*               2056               04.2042253937E+014.8724614526E+01+
*       0.0000000000E+00               0
GRID*               2057               04.5524404257E+013.5056389689E+01+
*       0.0000000000E+00               0
GRID*               2058               04.3815984972E+014.1691573980E+01+
*       0.0000000000E+00               0
GRID*               2059               04.2806852023E+014.5755045030E+01+
*       0.0000000000E+00               0
GRID*               2060               04.2568519263E+013.8995201181E+01+
*       0.0000000000E+00               0
GRID*               2061               03.9129964156E+014.1768858947E+01+
*       0.0000000000E+00               0
GRID*               2062               03.6836492490E+014.5271857664E+01+
*       0.0000000000E+00               0
GRID*               2063               03.9612831779E+014.7434801242E+01+
*       0.0000000000E+00               0
GRID*               2064               03.6071894403E+014.8241427160E+01+
*       0.0000000000E+00               0
GRID*               2065               03.2879810805E+01-5.241702239E+01+
*       0.0000000000E+00               0
GRID*               2066               02.7589076433E+01-3.379026172E+01+
*       0.0000000000E+00               0
GRID*               2067               03.0149100754E+01-3.813717658E+01+
*       0.0000000000E+00               0
GRID*               2068               03.4479661092E+01-2.636402447E+01+
*       0.0000000000E+00               0
GRID*               2069               03.9459502281E+01-2.164310199E+01+
*       0.0000000000E+00               0
GRID*               2070               03.9333122993E+01-2.971700757E+01+
*       0.0000000000E+00               0
GRID*               2071               05.1722131849E+01-6.861711535E+00+
*       0.0000000000E+00               0
GRID*               2072               05.4494185854E+01-8.009933913E+00+
*       0.0000000000E+00               0
GRID*               2073               04.0346001365E+01-1.549425173E+01+
*       0.0000000000E+00               0
GRID*               2074               04.5199463266E+01-1.884723483E+01+
*       0.0000000000E+00               0
GRID*               2075               04.2600330381E+01-5.616965935E+00+
*       0.0000000000E+00               0
GRID*               2076               04.8162779532E+01-8.175231410E+00+
*       0.0000000000E+00               0
GRID*               2077               04.9645314668E+01-1.138486470E+01+
*       0.0000000000E+00               0
GRID*               2078               06.9209075849E+016.7875143128E+00+
*       0.0000000000E+00               0
GRID*               2079               06.5332992210E+013.5644249405E+00+
*       0.0000000000E+00               0
GRID*               2080               07.8793630152E+016.5509586400E+00+
*       0.0000000000E+00               0
GRID*               2081               07.7915445697E+012.3655567279E-01+
*       0.0000000000E+00               0
GRID*               2082               06.2387296465E+013.6660791869E+00+
*       0.0000000000E+00               0
GRID*               2083               06.5385195648E+015.7476559194E-01+
*       0.0000000000E+00               0
GRID*               2084               06.1099951313E+012.1642489383E+00+
*       0.0000000000E+00               0
GRID*               2085               06.1491388822E+01-8.098402699E-01+
*       0.0000000000E+00               0
GRID*               2086               06.2359715497E+01-2.163747509E+00+
*       0.0000000000E+00               0
GRID*               2087               06.1411604416E+01-3.650007617E+00+
*       0.0000000000E+00               0
GRID*               2088               07.7898263204E+01-6.561712694E+00+
*       0.0000000000E+00               0
GRID*               2089               06.8313708901E+01-6.325157021E+00+
*       0.0000000000E+00               0
GRID*               2090               07.6126053481E+01-1.888756297E+01+
*       0.0000000000E+00               0
GRID*               2091               06.5305411243E+01-2.265401755E+00+
*       0.0000000000E+00               0
GRID*               2092               06.5288228750E+01-9.063670122E+00+
*       0.0000000000E+00               0
GRID*               2093               03.9432843562E+01-3.524008292E+01+
*       0.0000000000E+00               0
GRID*               2094               04.4412684751E+01-3.051916044E+01+
*       0.0000000000E+00               0
GRID*               2095               04.1416427998E+01-3.980499086E+01+
*       0.0000000000E+00               0
GRID*               2096               04.5488741837E+01-4.057164992E+01+
*       0.0000000000E+00               0
GRID*               2097               04.2392764515E+01-4.433440499E+01+
*       0.0000000000E+00               0
GRID*               2098               03.6336866240E+01-3.900283799E+01+
*       0.0000000000E+00               0
GRID*               2099               03.3047564183E+01-3.891294556E+01+
*       0.0000000000E+00               0
GRID*               2100               03.5031148620E+01-4.347785350E+01+
*       0.0000000000E+00               0
GRID*               2101               04.9227782622E+01-4.148999475E+01+
*       0.0000000000E+00               0
GRID*               2102               05.4298548197E+01-4.226421468E+01+
*       0.0000000000E+00               0
GRID*               2103               05.1535843928E+01-4.587528398E+01+
*       0.0000000000E+00               0
GRID*               2104               04.7863655805E+01-2.745750147E+01+
*       0.0000000000E+00               0
GRID*               2105               04.7963376374E+01-3.298057681E+01+
*       0.0000000000E+00               0
GRID*               2106               04.9563153723E+01-2.199924490E+01+
*       0.0000000000E+00               0
GRID*               2107               05.3113845346E+01-2.446066127E+01+
*       0.0000000000E+00               0
GRID*               2108               04.8251446105E+01-3.696058061E+01+
*       0.0000000000E+00               0
GRID*               2109               05.1702417159E+01-3.389892164E+01+
*       0.0000000000E+00               0
GRID*               2110               05.0449652808E+01-1.585039464E+01+
*       0.0000000000E+00               0
GRID*               2111               05.4009005125E+01-1.453687476E+01+
*       0.0000000000E+00               0
GRID*               2112               05.7164621856E+01-3.057292012E+01+
*       0.0000000000E+00               0
GRID*               2113               05.8864119775E+01-2.511466356E+01+
*       0.0000000000E+00               0
GRID*               2114               05.9760752894E+01-3.893821316E+01+
*       0.0000000000E+00               0
GRID*               2115               06.8262217116E+01-3.926658407E+01+
*       0.0000000000E+00               0
GRID*               2116               06.5108073725E+01-4.697787483E+01+
*       0.0000000000E+00               0
GRID*               2117               05.7452691588E+01-3.455292392E+01+
*       0.0000000000E+00               0
GRID*               2118               07.3435238420E+01-2.793931147E+01+
*       0.0000000000E+00               0
GRID*               2119               06.5605711346E+01-2.217517390E+01+
*       0.0000000000E+00               0
GRID*               2120               06.3481873051E+01-1.169023536E+01+
*       0.0000000000E+00               0
GRID*               2121               06.0473575393E+01-7.630480094E+00+
*       0.0000000000E+00               0
GRID*               2122               06.1554934836E+01-1.606291505E+01+
*       0.0000000000E+00               0
GRID*               2123               05.6740281480E+01-1.462972502E+01+
*       0.0000000000E+00               0
GRID*               2124               05.5935943340E+01-1.016419508E+01+
*       0.0000000000E+00               0
GRID*               2125               05.7225462208E+01-8.102784169E+00+
*       0.0000000000E+00               0
GRID*               2126               05.9031817911E+01-5.476218947E+00+
*       0.0000000000E+00               0
GRID*               2127               03.5808002896E+01-4.637602842E+01+
*       0.0000000000E+00               0
GRID*               2128               03.6439301612E+01-5.111333063E+01+
*       0.0000000000E+00               0
GRID*               2129               03.6023557302E+01-5.434604211E+01+
*       0.0000000000E+00               0
GRID*               2130               03.8951749393E+01-4.830504814E+01+
*       0.0000000000E+00               0
GRID*               2131               04.3024063231E+01-4.907170720E+01+
*       0.0000000000E+00               0
GRID*               2132               05.6953333739E+01-5.638890660E+01+
*       0.0000000000E+00               0
GRID*               2133               05.2766357869E+01-6.012860829E+01+
*       0.0000000000E+00               0
GRID*               2134               04.5787599302E+01-5.798876478E+01+
*       0.0000000000E+00               0
GRID*               2135               05.2419633632E+01-5.038920561E+01+
*       0.0000000000E+00               0
GRID*               2136               04.3907852935E+01-5.358562883E+01+
*       0.0000000000E+00               0
GRID*               2137               04.7348868057E+01-4.961498568E+01+
*       0.0000000000E+00               0
GRID*               1419               03.4843747608E+015.5688291693E+00+
*       2.3333333015E+01               0
GRID*               1420               03.2052752547E+011.0912264366E+01+
*       2.2107447470E+01               0
GRID*               1421               03.4322024248E+01-8.191286400E+00+
*       2.3333333015E+01               0
GRID*               1422               03.3758713875E+01-2.207306912E+00+
*       2.2129274602E+01               0
GRID*               1423               02.8575259014E+01-2.070152620E+01+
*       2.3333333015E+01               0
GRID*               1424               03.1064371652E+01-1.528209637E+01+
*       2.3333333015E+01               0
GRID*               1425               01.8477936733E+01-3.006100652E+01+
*       2.3333333015E+01               0
GRID*               1426               02.2852187459E+01-2.600597027E+01+
*       2.3333333015E+01               0
GRID*               1427               05.5672873569E+00-3.484399422E+01+
*       2.3333333015E+01               0
GRID*               1428               01.1160321856E+01-3.277174227E+01+
*       2.3333333015E+01               0
GRID*               1429               0-8.191647267E+00-3.432190632E+01+
*       2.3333333015E+01               0
GRID*               1430               0-2.231416953E+00-3.454786053E+01+
*       2.3333333015E+01               0
GRID*               1431               0-2.070148417E+01-2.857528222E+01+
*       2.3333333015E+01               0
GRID*               1432               0-1.490419419E+01-3.037872575E+01+
*       2.2123346282E+01               0
GRID*               1433               0-3.006145520E+01-1.847713503E+01+
*       2.3333333015E+01               0
GRID*               1434               0-2.539624612E+01-2.235043784E+01+
*       2.2129890921E+01               0
GRID*               1435               0-3.484425482E+01-5.565657062E+00+
*       2.3333333015E+01               0
GRID*               1436               0-3.277226298E+01-1.115870122E+01+
*       2.3333333015E+01               0
GRID*               1437               0-3.432220340E+018.1903980774E+00+
*       2.3333333015E+01               0
GRID*               1438               0-3.454817861E+012.2311049049E+00+
*       2.3333333015E+01               0
GRID*               1439               0-2.857465846E+012.0702355195E+01+
*       2.3333333015E+01               0
GRID*               1440               0-3.033332953E+011.4907726160E+01+
*       2.2154808373E+01               0
GRID*               1441               0-1.847770338E+013.0061150585E+01+
*       2.3333333015E+01               0
GRID*               1442               0-2.285132512E+012.6006905586E+01+
*       2.3333333015E+01               0
GRID*               1443               0-5.567062997E+003.4844026784E+01+
*       2.3333333015E+01               0
GRID*               1444               0-1.116034007E+013.2771693790E+01+
*       2.3333333015E+01               0
GRID*               1445               08.1901405344E+003.4322298819E+01+
*       2.3333333015E+01               0
GRID*               1446               02.2306383913E+003.4548132802E+01+
*       2.3333333015E+01               0
GRID*               1447               02.0701429769E+012.8575324558E+01+
*       2.3333333015E+01               0
GRID*               1448               01.4947262854E+013.0318676044E+01+
*       2.2151588108E+01               0
GRID*               1449               02.6006127102E+012.2852471116E+01+
*       2.3333333015E+01               0
GRID*               1473               03.0756707444E+01-1.544818558E+01+
*       -3.333333254E+00               0
GRID*               1474               02.5802970599E+01-2.133037648E+01+
*       -3.333333254E+00               0
GRID*               1475               03.4360168206E+012.0001334442E+00+
*       -3.333333220E+00               0
GRID*               1476               03.2371342745E+01-5.420051759E+00+
*       -2.250156744E+00               0
GRID*               1477               02.8756966924E+011.8911867643E+01+
*       -3.333333254E+00               0
GRID*               1478               03.1374115692E+011.1680342626E+01+
*       -3.333333220E+00               0
GRID*               1479               01.5448109301E+013.0756728380E+01+
*       -3.333333254E+00               0
GRID*               1480               02.1330729673E+012.5802452302E+01+
*       -3.333333254E+00               0
GRID*               1481               0-2.000679486E+003.4360118763E+01+
*       -3.333333254E+00               0
GRID*               1482               05.4817201545E+003.2368134588E+01+
*       -2.244325889E+00               0
GRID*               1483               0-1.891225702E+012.8756702863E+01+
*       -3.333333254E+00               0
GRID*               1484               0-1.168088867E+013.1374066249E+01+
*       -3.333333254E+00               0
GRID*               1485               0-3.075669650E+011.5448209291E+01+
*       -3.333333254E+00               0
GRID*               1486               0-2.580284168E+012.1330465612E+01+
*       -3.333333254E+00               0
GRID*               1487               0-3.436016344E+01-2.000220634E+00+
*       -3.333333254E+00               0
GRID*               1488               0-3.232515582E+015.4930657898E+00+
*       -2.277541327E+00               0
GRID*               1489               0-2.875692585E+01-1.891193522E+01+
*       -3.333333254E+00               0
GRID*               1490               0-3.137411092E+01-1.168042982E+01+
*       -3.333333254E+00               0
GRID*               1491               0-1.544811107E+01-3.075673337E+01+
*       -3.333333254E+00               0
GRID*               1492               0-2.088041526E+01-2.524723356E+01+
*       -2.298883744E+00               0
GRID*               1493               02.0008448713E+00-3.436010905E+01+
*       -3.333333254E+00               0
GRID*               1494               0-5.570825282E+00-3.301106238E+01+
*       -3.333333254E+00               0
GRID*               1495               01.1681054053E+01-3.137405654E+01+
*       -3.333333254E+00               0
GRID*               1496               02.7945298264E+013.8305988481E+00+
*       2.8333333015E+01               0
GRID*               1497               02.6424077322E+018.6411282277E+00+
*       2.8333333015E+01               0
GRID*               1498               02.7284170402E+01-7.154620988E+00+
*       2.8333333015E+01               0
GRID*               1499               02.8386127129E+01-2.191122445E+00+
*       2.9263376578E+01               0
GRID*               1500               02.2470035496E+01-1.705027252E+01+
*       2.8333333015E+01               0
GRID*               1501               02.4795057764E+01-1.257405083E+01+
*       2.8333333015E+01               0
GRID*               1502               01.4234395049E+01-2.435151146E+01+
*       2.8333333015E+01               0
GRID*               1503               01.8537397766E+01-2.161909629E+01+
*       2.9258281698E+01               0
GRID*               1504               03.8307303605E+00-2.794526518E+01+
*       2.8333333015E+01               0
GRID*               1505               08.6413605502E+00-2.642376341E+01+
*       2.8333333015E+01               0
GRID*               1506               0-7.155936138E+00-2.728381010E+01+
*       2.8333333015E+01               0
GRID*               1507               0-2.176142318E+00-2.839588624E+01+
*       2.9258031214E+01               0
GRID*               1508               0-1.705170300E+01-2.246895357E+01+
*       2.8333333015E+01               0
GRID*               1509               0-1.257571490E+01-2.479426557E+01+
*       2.8333333015E+01               0
GRID*               1510               0-2.373137242E+01-1.347518529E+01+
*       2.9547347204E+01               0
GRID*               1511               0-2.159861221E+01-1.855215974E+01+
*       2.9262757909E+01               0
GRID*               1512               0-2.794546092E+01-3.829583707E+00+
*       2.8333333015E+01               0
GRID*               1513               0-2.704940213E+01-8.865291535E+00+
*       2.9267128046E+01               0
GRID*               1514               0-2.728416366E+017.1546474125E+00+
*       2.8333333015E+01               0
GRID*               1515               0-2.771948571E+012.1297094652E+00+
*       2.8333333015E+01               0
GRID*               1516               0-2.246950692E+011.7051002201E+01+
*       2.8333333015E+01               0
GRID*               1517               0-2.539151699E+011.2860860466E+01+
*       2.9267626121E+01               0
GRID*               1518               0-1.423449546E+012.4351449887E+01+
*       2.8333333015E+01               0
GRID*               1519               0-1.809588518E+012.1105247201E+01+
*       2.8333333015E+01               0
GRID*               1520               0-3.830588190E+002.7945284651E+01+
*       2.8333333015E+01               0
GRID*               1521               0-8.641218380E+002.6423782880E+01+
*       2.8333333015E+01               0
GRID*               1522               07.1553501366E+002.7283949809E+01+
*       2.8333333015E+01               0
GRID*               1523               02.1289139529E+002.7719450668E+01+
*       2.8333333015E+01               0
GRID*               1524               01.7051597372E+012.2469033001E+01+
*       2.8333333015E+01               0
GRID*               1525               01.2864915767E+012.5383996824E+01+
*       2.9271439298E+01               0
GRID*               1526               02.1106259379E+011.8094861026E+01+
*       2.8333333015E+01               0
GRID*               1450               02.4773858325E+01-1.160437189E+01+
*       -8.333333254E+00               0
GRID*               1451               02.0605145517E+01-1.655527954E+01+
*       -8.333333254E+00               0
GRID*               1452               02.7256891931E+012.3384196260E+00+
*       -8.333333220E+00               0
GRID*               1453               02.6122990072E+01-4.033338652E+00+
*       -8.333333220E+00               0
GRID*               1454               02.2436368030E+011.5652972614E+01+
*       -8.333333254E+00               0
GRID*               1455               02.4639743162E+019.5699446432E+00+
*       -8.333333254E+00               0
GRID*               1456               01.1604601408E+012.4773756792E+01+
*       -8.333333254E+00               0
GRID*               1457               01.6553747658E+012.0607248692E+01+
*       -8.333333254E+00               0
GRID*               1458               0-2.336571716E+002.7257032939E+01+
*       -8.333333254E+00               0
GRID*               1459               04.1978129764E+002.6968171781E+01+
*       -9.442712959E+00               0
GRID*               1460               0-1.565256414E+012.2436662101E+01+
*       -8.333333254E+00               0
GRID*               1461               0-9.567940070E+002.4639669553E+01+
*       -8.333333254E+00               0
GRID*               1462               0-2.477385607E+011.1604414478E+01+
*       -8.333333254E+00               0
GRID*               1463               0-2.123285728E+011.7125404352E+01+
*       -9.450714286E+00               0
GRID*               1464               0-2.725690271E+01-2.338277170E+00+
*       -8.333333254E+00               0
GRID*               1465               0-2.693920785E+014.2032799468E+00+
*       -9.457374164E+00               0
GRID*               1466               0-2.243688936E+01-1.565223731E+01+
*       -8.333333254E+00               0
GRID*               1467               0-2.463971763E+01-9.569782571E+00+
*       -8.333333254E+00               0
GRID*               1468               0-1.160507090E+01-2.477353161E+01+
*       -8.333333254E+00               0
GRID*               1469               0-1.710167195E+01-2.121352772E+01+
*       -9.465747657E+00               0
GRID*               1470               02.3363834114E+00-2.725707093E+01+
*       -8.333333254E+00               0
GRID*               1471               0-4.033400748E+00-2.612257828E+01+
*       -8.333333254E+00               0
GRID*               1472               09.8499467661E+00-2.541849954E+01+
*       -9.459888383E+00               0
GRID*               1589               07.4995167786E+00-1.299055390E+01+
*       1.6666618723E+01               0
GRID*               1590               0-7.499928157E+00-1.299027795E+01+
*       1.6666666667E+01               0
GRID*               1591               0-1.499984169E+01-9.709597579E-04+
*       1.6666756541E+01               0
GRID*               1592               0-7.500552757E+001.2989881523E+01+
*       1.6666735163E+01               0
GRID*               1593               07.4997594232E+001.2990439715E+01+
*       1.6666689767E+01               0
GRID*               1594               07.4997594232E+00-1.299043971E+01+
*       3.3333102325E+00               0
GRID*               1595               0-7.500552757E+00-1.298988152E+01+
*       3.3332648370E+00               0
GRID*               1596               0-1.499984169E+019.7095975741E-04+
*       3.3332434588E+00               0
GRID*               1597               0-7.499928157E+001.2990277949E+01+
*       3.3333333333E+00               0
GRID*               1598               07.4995167786E+001.2990553901E+01+
*       3.3333812769E+00               0
GRID*               1599               07.4995837148E+00-1.299052240E+01+
*       9.9999589126E+00               0
GRID*               1600               0-3.966667844E-04-1.299016062E+01+
*       3.3332875347E+00               0
GRID*               1601               0-7.662548611E-04-1.499986208E+01+
*       9.9999277503E+00               0
GRID*               1602               0-7.500747944E+00-1.298975764E+01+
*       9.9999101000E+00               0
GRID*               1603               0-5.874415011E-04-1.499987332E+01+
*       1.6666611013E+01               0
GRID*               1604               0-1.125019722E+01-6.494455282E+00+
*       3.3332541479E+00               0
GRID*               1605               0-1.299063633E+01-7.499224726E+00+
*       9.9999254663E+00               0
GRID*               1606               0-1.499984169E+01-3.587701350E-13+
*       1.0000000000E+01               0
GRID*               1607               0-1.298989371E+01-7.500575349E+00+
*       1.6666734840E+01               0
GRID*               1608               0-1.124988493E+016.4956244542E+00+
*       3.3332883961E+00               0
GRID*               1609               0-1.124988493E+016.4946534945E+00+
*       1.0000044937E+01               0
GRID*               1610               0-7.500240457E+001.2990079736E+01+
*       1.0000034248E+01               0
GRID*               1611               0-1.125019722E+016.4944552817E+00+
*       1.6666745852E+01               0
GRID*               1612               0-5.874414996E-041.4999873316E+01+
*       3.3333889865E+00               0
GRID*               1613               0-5.179890590E-041.2990217712E+01+
*       1.0000058220E+01               0
GRID*               1614               07.4995837148E+001.2990522402E+01+
*       1.0000041087E+01               0
GRID*               1615               0-4.778462588E-041.4999880205E+01+
*       1.6666712170E+01               0
GRID*               1616               01.1249758389E+01-6.495276951E+00+
*       1.6666642695E+01               0
GRID*               1617               01.2990270962E+01-7.500124999E+00+
*       2.3333317523E+01               0
GRID*               1618               07.4999853351E+00-1.299033340E+01+
*       2.3333333333E+01               0
GRID*               1619               01.1249879712E+01-6.495219857E+00+
*       3.3333217829E+00               0
GRID*               1620               01.2990292579E+01-7.500095239E+00+
*       9.9999875928E+00               0
GRID*               1621               01.2990359646E+01-7.500002909E+00+
*       -3.333335178E+00               0
GRID*               1622               07.4999183979E+00-1.299036490E+01+
*       -3.333340165E+00               0
GRID*               1623               0-1.409848797E-04-1.499990138E+01+
*       -3.333347588E+00               0
GRID*               1624               0-7.500138960E+00-1.299014416E+01+
*       -3.333356452E+00               0
GRID*               1625               0-1.299041754E+01-7.499622649E+00+
*       -3.333365819E+00               0
GRID*               1626               0-1.499984169E+014.4386805282E-04+
*       -3.333374375E+00               0
GRID*               1627               0-1.299000286E+017.5003768219E+00+
*       -3.333380528E+00               0
GRID*               1628               0-7.499490938E+001.2990555447E+01+
*       -3.333381280E+00               0
GRID*               1629               04.1737403817E-041.4999936480E+01+
*       -3.333370903E+00               0
GRID*               1630               07.4999853351E+001.2990333402E+01+
*       -3.333333333E+00               0
GRID*               1631               01.2990270962E+017.5001249990E+00+
*       -3.333317523E+00               0
GRID*               1632               01.2990260155E+017.5001398755E+00+
*       3.3333508470E+00               0
GRID*               1633               01.2990330251E+017.5000433769E+00+
*       1.6666673141E+01               0
GRID*               1634               01.2990292579E+017.5000952389E+00+
*       1.0000012407E+01               0
GRID*               1635               01.2990359646E+017.5000029088E+00+
*       2.3333335178E+01               0
GRID*               1636               07.4999183979E+001.2990364902E+01+
*       2.3333340165E+01               0
GRID*               1637               0-1.409848774E-041.4999901380E+01+
*       2.3333347588E+01               0
GRID*               1638               0-7.500138960E+001.2990144155E+01+
*       2.3333356452E+01               0
GRID*               1639               0-1.299041754E+017.4996226494E+00+
*       2.3333365819E+01               0
GRID*               1640               0-1.499984169E+01-4.438680530E-04+
*       2.3333374375E+01               0
GRID*               1641               0-1.299000286E+01-7.500376822E+00+
*       2.3333380528E+01               0
GRID*               1642               0-7.499490938E+00-1.299055545E+01+
*       2.3333381280E+01               0
GRID*               1643               04.1737403659E-04-1.499993648E+01+
*       2.3333370903E+01               0
GRID*               1567               05.1685563929E+00-1.934600190E+01+
*       3.0000000000E+01               0
GRID*               1568               09.9791865826E+00-1.782450012E+01+
*       3.0000000000E+01               0
GRID*               1569               0-2.331400410E+00-1.934597134E+01+
*       3.0000000000E+01               0
GRID*               1570               0-1.183382469E+01-1.658515848E+01+
*       3.0000000000E+01               0
GRID*               1571               0-1.507967713E+01-1.272369876E+01+
*       3.0000000000E+01               0
GRID*               1572               0-7.357836594E+00-1.891047048E+01+
*       3.0000000000E+01               0
GRID*               1573               0-9.979164023E+001.7824469572E+01+
*       3.0000000000E+01               0
GRID*               1574               0-5.168533834E+001.9345971343E+01+
*       3.0000000000E+01               0
GRID*               1575               0-1.384055374E+011.4578266885E+01+
*       3.0000000000E+01               0
GRID*               1576               0-2.035085301E+01-1.418031068E+00+
*       3.0000000000E+01               0
GRID*               1577               0-1.991553095E+013.6069068792E+00+
*       3.0000000000E+01               0
GRID*               1578               0-1.882963207E+01-6.228560448E+00+
*       3.0000000000E+01               0
GRID*               1579               0-1.759050868E+018.0831285773E+00+
*       3.0000000000E+01               0
GRID*               1580               01.3840576304E+01-1.457829744E+01+
*       3.0000000000E+01               0
GRID*               1581               02.0350930948E+011.4180310681E+00+
*       3.0000000000E+01               0
GRID*               1582               01.9915608891E+01-3.606906879E+00+
*       3.0000000000E+01               0
GRID*               1583               01.8829710007E+016.2285604477E+00+
*       3.0000000000E+01               0
GRID*               1584               01.7590586623E+01-8.083128577E+00+
*       3.0000000000E+01               0
GRID*               1585               01.5079699688E+011.2723729309E+01+
*       3.0000000000E+01               0
GRID*               1586               02.3314229690E+001.9346001896E+01+
*       3.0000000000E+01               0
GRID*               1587               01.1833847250E+011.6585189036E+01+
*       3.0000000000E+01               0
GRID*               1588               07.3578591527E+001.8910501036E+01+
*       3.0000000000E+01               0
GRID*               1549               04.8177545708E+00-1.894947995E+01+
*       -1.000000000E+01               0
GRID*               1550               01.0901447944E+01-1.674732226E+01+
*       -1.000000000E+01               0
GRID*               1551               0-2.682202232E+00-1.894944939E+01+
*       -1.000000000E+01               0
GRID*               1552               0-9.051986391E+00-1.781495674E+01+
*       -1.000000000E+01               0
GRID*               1553               0-1.400122733E+01-1.364787594E+01+
*       -1.000000000E+01               0
GRID*               1554               0-1.775118227E+01-7.152737627E+00+
*       -1.000000000E+01               0
GRID*               1555               0-1.995401053E+01-1.070282886E+00+
*       -1.000000000E+01               0
GRID*               1556               0-1.882010182E+015.3012646286E+00+
*       -1.000000000E+01               0
GRID*               1557               0-1.507014688E+011.1796402937E+01+
*       -1.000000000E+01               0
GRID*               1558               0-1.090270978E+011.6746394238E+01+
*       -1.000000000E+01               0
GRID*               1559               01.8820171072E+01-5.301245747E+00+
*       -1.000000000E+01               0
GRID*               1560               01.9954072931E+011.0705125315E+00+
*       -1.000000000E+01               0
GRID*               1561               01.5070160753E+01-1.179641461E+01+
*       -1.000000000E+01               0
GRID*               1562               0-4.818085702E+001.8949401690E+01+
*       -1.000000000E+01               0
GRID*               1563               02.6818711012E+001.8949432243E+01+
*       -1.000000000E+01               0
GRID*               1564               09.0515412293E+001.7815217464E+01+
*       -1.000000000E+01               0
GRID*               1565               01.4000687479E+011.3648709363E+01+
*       -1.000000000E+01               0
GRID*               1566               01.7750697798E+017.1535405023E+00+
*       -1.000000000E+01               0
GRID*               1000               0-5.023959906E+013.6520795448E+00+
*       9.9999998125E+00               0
GRID*               1001               0-4.905147786E+017.8370228030E-01+
*       1.0000000188E+01               0
GRID*               1002               0-5.578370218E+015.9485220970E+00+
*       1.0000000188E+01               0
GRID*               1003               0-5.270389963E+015.5432773656E+00+
*       1.0000000000E+01               0
GRID*               1004               0-6.054327774E+012.2961003780E+00+
*       1.0000000000E+01               0
GRID*               1005               0-5.865207949E+014.7604010651E+00+
*       9.9999998122E+00               0
GRID*               1006               0-5.976040041E+01-3.652079474E+00+
*       9.9999998128E+00               0
GRID*               1007               0-6.094852214E+01-7.837022803E-01+
*       1.0000000188E+01               0
GRID*               1008               0-5.421629765E+01-5.948522074E+00+
*       1.0000000188E+01               0
GRID*               1009               0-5.729610021E+01-5.543277432E+00+
*       1.0000000000E+01               0
GRID*               1010               0-5.134792037E+01-4.760400960E+00+
*       9.9999998123E+00               0
GRID*               1527               0-2.273959876E+01-4.397931742E+01+
*       9.9999998123E+00               0
GRID*               1528               0-2.155147790E+01-4.684769513E+01+
*       1.0000000188E+01               0
GRID*               1529               0-2.828370204E+01-4.168287494E+01+
*       1.0000000187E+01               0
GRID*               1530               0-2.520389926E+01-4.208811956E+01+
*       1.0000000000E+01               0
GRID*               1531               0-3.304327761E+01-4.533529631E+01+
*       1.0000000000E+01               0
GRID*               1532               0-3.115207965E+01-4.287099587E+01+
*       9.9999998122E+00               0
GRID*               1533               0-3.226040097E+01-5.128347624E+01+
*       9.9999998120E+00               0
GRID*               1534               0-3.344852215E+01-4.841509902E+01+
*       1.0000000188E+01               0
GRID*               1535               0-2.671629810E+01-5.357991938E+01+
*       1.0000000188E+01               0
GRID*               1536               0-2.979610074E+01-5.317467494E+01+
*       1.0000000000E+01               0
GRID*               1537               0-2.384792082E+01-5.239179819E+01+
*       9.9999998125E+00               0
GRID*               1538               0-2.273959924E+015.1283476522E+01+
*       9.9999998121E+00               0
GRID*               1539               0-2.155147790E+014.8415099367E+01+
*       1.0000000188E+01               0
GRID*               1540               0-2.828370238E+015.3579919505E+01+
*       1.0000000188E+01               0
GRID*               1541               0-2.520389959E+015.3174675071E+01+
*       1.0000000000E+01               0
GRID*               1542               0-3.304327788E+014.9927497538E+01+
*       1.0000000000E+01               0
GRID*               1543               0-3.115207946E+015.2391797974E+01+
*       9.9999998126E+00               0
GRID*               1544               0-3.226040103E+014.3979317145E+01+
*       9.9999998124E+00               0
GRID*               1545               0-3.344852206E+014.6847694780E+01+
*       1.0000000188E+01               0
GRID*               1546               0-2.671629775E+014.1682875160E+01+
*       1.0000000188E+01               0
GRID*               1547               0-2.979610041E+014.2088119423E+01+
*       1.0000000000E+01               0
GRID*               1548               0-2.384792007E+014.2870996087E+01+
*       9.9999998124E+00               0
GRID*               1644               02.9055080463E+01-5.342637185E+01+
*       9.9999999996E+00               0
GRID*               1645               03.1743435180E+01-5.187324291E+01+
*       9.9999999996E+00               0
GRID*               1646               02.3258154272E+01-5.187483236E+01+
*       1.0000000000E+01               0
GRID*               1647               02.6156617364E+01-5.265060210E+01+
*       1.0000000000E+01               0
GRID*               1648               02.1704444977E+01-4.607848324E+01+
*       1.0000000000E+01               0
GRID*               1649               02.1705025834E+01-4.918647742E+01+
*       1.0000000000E+01               0
GRID*               1650               02.5944919698E+01-4.183642312E+01+
*       1.0000000000E+01               0
GRID*               1651               02.3256563986E+01-4.338955051E+01+
*       9.9999999996E+00               0
GRID*               1652               03.1741846578E+01-4.338796108E+01+
*       9.9999999996E+00               0
GRID*               1653               02.9052913953E+01-4.183584170E+01+
*       1.0000000000E+01               0
GRID*               1654               03.3294974074E+01-4.607631673E+01+
*       1.0000000000E+01               0
GRID*               1655               02.9055080803E+014.1836422739E+01+
*       9.9999999996E+00               0
GRID*               1656               03.1743436264E+014.3389550764E+01+
*       9.9999999996E+00               0
GRID*               1657               02.3258153671E+014.3387960829E+01+
*       9.9999999996E+00               0
GRID*               1658               02.5947086545E+014.1835842076E+01+
*       1.0000000000E+01               0
GRID*               1659               02.1704444794E+014.9184310572E+01+
*       1.0000000000E+01               0
GRID*               1660               02.1705026017E+014.6076316394E+01+
*       9.9999999996E+00               0
GRID*               1661               02.5944919358E+015.3426371287E+01+
*       1.0000000000E+01               0
GRID*               1662               02.3256564570E+015.1873242657E+01+
*       9.9999999996E+00               0
GRID*               1663               03.1741845494E+015.1874832593E+01+
*       9.9999999996E+00               0
GRID*               1664               02.9052913612E+015.3426952888E+01+
*       1.0000000000E+01               0
GRID*               1665               03.3294974074E+014.9186477760E+01+
*       1.0000000000E+01               0
GRID*               2138               05.9760400412E+013.6520794737E+00+
*       9.9999998128E+00               0
GRID*               2139               06.0948522142E+017.8370228030E-01+
*       1.0000000188E+01               0
GRID*               2140               05.4216297649E+015.9485220744E+00+
*       1.0000000188E+01               0
GRID*               2141               05.7296100211E+015.5432774317E+00+
*       1.0000000000E+01               0
GRID*               2142               04.9456722260E+012.2961003780E+00+
*       1.0000000000E+01               0
GRID*               2143               05.1347920369E+014.7604009601E+00+
*       9.9999998123E+00               0
GRID*               2144               05.0239599057E+01-3.652079545E+00+
*       9.9999998125E+00               0
GRID*               2145               04.9051477858E+01-7.837022803E-01+
*       1.0000000188E+01               0
GRID*               2146               05.5783702180E+01-5.948522097E+00+
*       1.0000000188E+01               0
GRID*               2147               05.2703899630E+01-5.543277366E+00+
*       1.0000000000E+01               0
GRID*               2148               05.8652079494E+01-4.760401065E+00+
*       9.9999998122E+00               0
GRID*                  1               0-3.768259332E+01-3.650635738E+01+
*       7.6053687295E+00               0
GRID*                  2               0-4.935666757E+01-3.804255635E+01+
*       1.0834052040E+01               0
GRID*                  3               0-4.079697376E+01-2.843852922E+01+
*       9.5189860617E+00               0
GRID*                  4               0-3.821175872E+01-4.842089534E+01+
*       7.9090981020E+00               0
GRID*                  5               03.0851422015E+00-5.151137745E+01+
*       9.9138010872E+00               0
GRID*                  6               0-7.941622432E+00-5.248281905E+01+
*       9.6561332542E+00               0
GRID*                  7               09.9199406890E+00-6.082111855E+01+
*       9.0219761462E+00               0
GRID*                  8               02.5126643555E+01-1.362169207E+01+
*       1.1692517177E+01               0
GRID*                  9               02.1571380103E+011.3057654770E+01+
*       1.3462974533E+01               0
GRID*                 10               0-2.582454198E+00-2.696463782E+01+
*       9.9227470659E+00               0
GRID*                 11               05.0552473484E+01-1.321641115E+01+
*       8.6176367083E+00               0
GRID*                 12               05.0145402285E+01-2.271824925E+01+
*       1.1557576660E+01               0
GRID*                 13               06.3275590867E+01-7.840480404E+00+
*       9.1181726776E+00               0
GRID*                 14               0-5.630327135E+01-1.168790569E+01+
*       7.4162126886E+00               0
GRID*                 15               04.4016621192E+01-3.229749517E+01+
*       8.4240539411E+00               0
GRID*                 16               0-3.251516012E+01-5.460582695E+01+
*       1.1592442999E+01               0
GRID*                 17               0-4.045137249E+01-5.685229179E+00+
*       1.1147526985E+01               0
GRID*                 18               0-3.195393042E+013.3956632815E+01+
*       1.1719095354E+01               0
GRID*                 19               0-4.049633776E+014.0584430039E+01+
*       1.0386135721E+01               0
GRID*                 20               0-3.725107237E+012.7985092608E+01+
*       1.0532547971E+01               0
GRID*                 21               04.0266468016E+011.5669674423E+01+
*       8.6985104681E+00               0
GRID*                 22               0-2.210344025E+01-1.350335054E+01+
*       1.4650527366E+01               0
GRID*                 23               0-4.440598337E+01-1.645132415E+01+
*       1.0027415567E+01               0
GRID*                 24               06.1272669200E+011.4318059537E+01+
*       7.7659361510E+00               0
GRID*                 25               0-3.218403794E+015.9601578407E+01+
*       6.8295355663E+00               0
GRID*                 26               04.6361041650E+019.9296632098E+00+
*       9.3471839883E+00               0
GRID*                 27               04.1757213029E+013.2879843098E+01+
*       6.8695525361E+00               0
GRID*                 28               0-5.647843521E+01-2.480753984E+01+
*       1.2266815607E+01               0
GRID*                 29               04.2108009937E+014.4547825190E+01+
*       6.7358486369E+00               0
GRID*                 30               02.8559028569E+01-3.436806774E+01+
*       1.2689722073E+01               0
GRID*                 31               04.3711845284E+01-4.355935638E+01+
*       8.7280626777E+00               0
GRID*                 32               03.7164362659E+01-3.614014736E+01+
*       1.2215645029E+01               0
GRID*                 33               0-2.394359399E+011.4874964679E+01+
*       1.2117877324E+01               0
GRID*                 34               02.1442921246E+015.8875902582E+01+
*       1.1624540584E+01               0
GRID*                 35               01.2291910693E+014.6272433099E+01+
*       1.0477989481E+01               0
GRID*                 36               03.7915275525E+01-4.582501420E+01+
*       1.0000412344E+01               0
GRID*                 37               02.9482948939E+01-6.216728243E+01+
*       1.0889517431E+01               0
GRID*                 38               03.6371143958E+01-5.594382871E+01+
*       8.6993609212E+00               0
GRID*                 39               04.1099381696E+01-5.453408853E+01+
*       1.3926446937E+01               0
GRID*                 40               0-4.035652792E+014.9818420027E+01+
*       9.5767249316E+00               0
GRID*                 41               0-3.450968501E+015.5505057416E+01+
*       1.1191525213E+01               0
GRID*                 42               0-1.432847199E+012.0313969290E+01+
*       1.6177693702E+01               0
GRID*                 43               0-1.320891898E+014.7739942662E+01+
*       9.1974389510E+00               0
GRID*                 44               0-5.074979123E+011.4310449502E+01+
*       9.5432321134E+00               0
GRID*                 45               01.8167407159E+01-5.651362766E+01+
*       1.1271664102E+01               0
GRID*                 46               0-6.503596179E+01-1.532170214E+00+
*       9.3841065428E+00               0
GRID*                 47               06.4373148846E+012.1811871801E+00+
*       4.3850228667E+00               0
GRID*                 48               06.3648518149E+011.2256305561E+00+
*       1.1658558180E+01               0
GRID*                 49               0-3.667670272E+01-3.838748150E+01+
*       3.8026843648E+00               0
GRID*                 50               0-4.137896819E+01-3.554092232E+01+
*       3.8026843648E+00               0
GRID*                 51               0-3.885484282E+01-4.128701004E+01+
*       3.8026843648E+00               0
GRID*                 52               0-5.125435062E+01-4.241762006E+01+
*       5.4170260200E+00               0
GRID*                 53               0-5.487776530E+01-4.611994604E+01+
*       1.0000000000E+01               0
GRID*                 54               0-5.298008225E+01-4.174488234E+01+
*       1.5417026020E+01               0
GRID*                 55               0-5.583494942E+01-3.359490290E+01+
*       5.4170260200E+00               0
GRID*                 56               0-5.945836411E+01-3.729722888E+01+
*       1.0000000000E+01               0
GRID*                 57               0-4.507682066E+01-3.324054279E+01+
*       1.0176519051E+01               0
GRID*                 58               0-4.661436999E+01-3.083535908E+01+
*       1.4759493031E+01               0
GRID*                 59               0-5.089421689E+01-3.563737265E+01+
*       1.5417026020E+01               0
GRID*                 60               0-4.562340874E+01-3.592430801E+01+
*       1.5417026020E+01               0
GRID*                 61               0-4.134356184E+01-3.112229444E+01+
*       1.4759493031E+01               0
GRID*                 62               0-5.155510252E+01-2.879288933E+01+
*       4.7594930308E+00               0
GRID*                 63               0-5.737249875E+01-3.118971919E+01+
*       1.0000000000E+01               0
GRID*                 64               0-4.378421314E+01-4.323172585E+01+
*       9.3715750710E+00               0
GRID*                 65               0-4.568189619E+01-4.760678955E+01+
*       3.9545490510E+00               0
GRID*                 66               0-4.469187994E+01-4.205510953E+01+
*       5.4170260200E+00               0
GRID*                 67               0-3.911942552E+01-4.724427902E+01+
*       3.9545490510E+00               0
GRID*                 68               0-4.740762783E+01-4.693405184E+01+
*       1.3954549051E+01               0
GRID*                 69               02.4079464896E+00-5.500468870E+01+
*       1.4956900544E+01               0
GRID*                 70               0-3.105435827E+00-5.549040950E+01+
*       1.4828066627E+01               0
GRID*                 71               0-2.428240115E+00-5.199709825E+01+
*       9.7849671707E+00               0
GRID*                 72               09.3212121291E-01-5.328546319E+01+
*       4.9569005436E+00               0
GRID*                 73               02.5492550099E-01-5.677877444E+01+
*       1.0000000000E+01               0
GRID*                 74               0-4.581261104E+00-5.377118399E+01+
*       4.8280666271E+00               0
GRID*                 75               02.6841425807E+00-6.547846535E+01+
*       1.4510988073E+01               0
GRID*                 76               09.2844817620E+00-6.426321571E+01+
*       1.4510988073E+01               0
GRID*                 77               05.8253457333E+00-5.965955925E+01+
*       1.4510988073E+01               0
GRID*                 78               04.3495204567E+00-5.794033374E+01+
*       4.5109880731E+00               0
GRID*                 79               04.6798377227E+00-6.394249981E+01+
*       4.5109880731E+00               0
GRID*                 80               0-2.886277652E+00-6.259768054E+01+
*       1.0000000000E+01               0
GRID*                 81               0-2.555960386E+00-6.859984662E+01+
*       1.0000000000E+01               0
GRID*                 82               06.5025414453E+00-5.616624800E+01+
*       9.4678886167E+00               0
GRID*                 83               01.1720696114E+01-5.990330597E+01+
*       1.4510988073E+01               0
GRID*                 84               08.3032968700E+00-5.524843542E+01+
*       1.4956900544E+01               0
GRID*                 85               01.1185964111E+01-7.371527520E+01+
*       4.5109880731E+00               0
GRID*                 86               03.9501660030E+00-7.837262200E+01+
*       1.0000000000E+01               0
GRID*                 87               09.0355787415E+00-5.891715029E+01+
*       4.5109880731E+00               0
GRID*                 88               05.6181794978E+00-5.426227975E+01+
*       4.9569005436E+00               0
GRID*                 89               0-6.246638980E+00-6.130931561E+01+
*       1.4828066627E+01               0
GRID*                 90               02.8759131918E+01-1.854522829E+01+
*       1.5846258588E+01               0
GRID*                 91               02.4942770651E+01-1.577798998E+01+
*       1.9179591604E+01               0
GRID*                 92               02.3036060363E+01-2.384967236E+01+
*       1.5846258588E+01               0
GRID*                 93               02.2975757309E+01-2.338214273E+01+
*       5.8462585885E+00               0
GRID*                 94               01.4162315243E+01-2.306651655E+01+
*       1.6666551163E+00               0
GRID*                 95               01.6313201489E+01-1.330606589E+01+
*       7.5129137047E+00               0
GRID*                 96               02.1063272186E+01-1.899616307E+01+
*       2.5129253346E+00               0
GRID*                 97               01.2249830121E+01-1.868053690E+01+
*       -1.666678138E+00               0
GRID*                 98               02.7431883289E+01-1.035856014E+01+
*       1.9179591604E+01               0
GRID*                 99               01.8285690052E+016.5288273848E+00+
*       1.5064820600E+01               0
GRID*                100               02.5880057367E+018.9413951647E+00+
*       2.0064820282E+01               0
GRID*                101               02.2594367316E+012.4125677800E+00+
*       2.1666666349E+01               0
GRID*                102               02.0063321777E+01-6.810846035E+00+
*       1.4179591922E+01               0
GRID*                103               02.3349011829E+01-2.820186501E-01+
*       1.2577745855E+01               0
GRID*                104               02.7657689093E+01-4.398278255E+00+
*       1.9179591604E+01               0
GRID*                105               02.9866341968E+01-1.595590548E+01+
*       5.8462585885E+00               0
GRID*                106               02.9739962679E+01-2.402981106E+01+
*       5.8462585885E+00               0
GRID*                107               03.3498830331E+01-2.087944170E+01+
*       1.0000000000E+01               0
GRID*                108               03.3372451042E+01-2.895334728E+01+
*       1.0000000000E+01               0
GRID*                109               06.7139710489E+00-2.650449910E+01+
*       1.8294706548E+01               0
GRID*                110               01.8638966095E+00-3.323188098E+01+
*       1.4961373533E+01               0
GRID*                111               01.1209365498E+00-2.857675105E+01+
*       1.8294706548E+01               0
GRID*                112               04.8779779578E+01-1.683705976E+01+
*       1.4308818354E+01               0
GRID*                113               05.4234191597E+01-1.494332240E+01+
*       1.4308818354E+01               0
GRID*                114               04.8576243978E+01-2.158797881E+01+
*       1.5778788330E+01               0
GRID*                115               05.0348937884E+01-1.796733020E+01+
*       1.0087606684E+01               0
GRID*                116               05.4030655998E+01-1.969424145E+01+
*       1.5778788330E+01               0
GRID*                117               09.1815114868E+00-3.052114523E+01+
*       1.4961373533E+01               0
GRID*                118               05.6914032176E+01-1.052844578E+01+
*       8.8679046930E+00               0
GRID*                119               05.2682908375E+01-1.610940793E+01+
*       4.3088183541E+00               0
GRID*                120               05.9044467066E+01-1.342144256E+01+
*       4.5590863388E+00               0
GRID*                121               05.6710496576E+01-1.527936483E+01+
*       1.0337874669E+01               0
GRID*                122               05.2479372775E+01-2.086032698E+01+
*       5.7787883301E+00               0
GRID*                123               0-5.443255163E+01-1.201068678E+01+
*       3.7081063443E+00               0
GRID*                124               0-5.237385648E+01-9.660440735E+00+
*       3.7081063443E+00               0
GRID*                125               0-5.525978322E+01-8.818214351E+00+
*       3.7081063443E+00               0
GRID*                126               06.4529779851E+01-1.849499471E+01+
*       1.4559086339E+01               0
GRID*                127               06.0298656050E+01-2.407595687E+01+
*       1.0000000000E+01               0
GRID*                128               06.5786058638E+01-1.048195290E+01+
*       4.5590863388E+00               0
GRID*                129               06.7040247621E+01-2.113646721E+01+
*       1.0000000000E+01               0
GRID*                130               04.8115682317E+01-1.770831691E+01+
*       5.7787883301E+00               0
GRID*                131               04.8319217917E+01-1.295739786E+01+
*       4.3088183541E+00               0
GRID*                132               05.0779874856E+01-2.631858354E+01+
*       5.7787883301E+00               0
GRID*                133               04.7715484310E+01-3.110820650E+01+
*       4.2120269705E+00               0
GRID*                134               04.7081011738E+01-2.750787221E+01+
*       9.9908153007E+00               0
GRID*                135               04.7229183233E+01-2.385716717E+01+
*       5.7787883301E+00               0
GRID*                136               04.4164792687E+01-2.864679013E+01+
*       4.2120269705E+00               0
GRID*                137               05.1305151319E+01-2.637822891E+01+
*       1.5778788330E+01               0
GRID*                138               04.6282484691E+01-2.668276701E+01+
*       1.5778788330E+01               0
GRID*                139               0-3.794717602E+01-4.246362636E+01+
*       7.7572334158E+00               0
GRID*                140               0-4.351963044E+01-3.727445687E+01+
*       9.2197103848E+00               0
GRID*                141               0-4.733601255E+01-4.081319774E+01+
*       1.5417026020E+01               0
GRID*                142               0-4.176355812E+01-4.600236724E+01+
*       1.3954549051E+01               0
GRID*                143               0-4.149897542E+01-4.004509826E+01+
*       1.3802684365E+01               0
GRID*                144               0-4.775636709E+01-5.727418590E+01+
*       3.9545490510E+00               0
GRID*                145               0-5.695223620E+01-5.578734239E+01+
*       1.0000000000E+01               0
GRID*                146               0-3.496721169E+01-5.820517128E+01+
*       1.5796221499E+01               0
GRID*                147               0-3.781551099E+01-5.511270547E+01+
*       1.3954549051E+01               0
GRID*                148               0-3.536345942E+01-5.151336115E+01+
*       9.7507705503E+00               0
GRID*                149               0-3.715366707E+01-5.613749149E+01+
*       5.7962214993E+00               0
GRID*                150               0-3.960571864E+01-5.973683582E+01+
*       1.0000000000E+01               0
GRID*                151               0-4.000196637E+01-5.304502569E+01+
*       3.9545490510E+00               0
GRID*                152               0-3.802466067E+01-4.984885738E+01+
*       1.3954549051E+01               0
GRID*                153               0-4.234037848E+01-5.087128270E+01+
*       1.3954549051E+01               0
GRID*                154               0-3.536293546E+01-4.092082684E+01+
*       1.3802684365E+01               0
GRID*                155               0-3.536293546E+01-4.092082684E+01+
*       3.8026843648E+00               0
GRID*                156               0-3.562751816E+01-4.687809582E+01+
*       1.3954549051E+01               0
GRID*                157               0-3.562751816E+01-4.687809582E+01+
*       3.9545490510E+00               0
GRID*                158               0-9.052295648E+00-1.781475920E+01+
*       -3.333367582E+00               0
GRID*                159               0-1.005332801E+01-1.994865394E+01+
*       -1.666700835E+00               0
GRID*                160               0-2.481657857E+00-2.129770061E+01+
*       -1.666700835E+00               0
GRID*                161               0-4.534548452E+01-1.016575411E+00+
*       1.5573763493E+01               0
GRID*                162               0-4.495404738E+01-3.990664779E+00+
*       1.5573763493E+01               0
GRID*                163               0-4.534548452E+01-1.016575411E+00+
*       5.5737634926E+00               0
GRID*                164               0-3.622513409E+013.7270531427E+01+
*       1.1052615537E+01               0
GRID*                165               0-3.637837068E+014.2281874224E+01+
*       5.1930678603E+00               0
GRID*                166               0-3.210716700E+013.8967975611E+01+
*       5.8595476769E+00               0
GRID*                167               0-3.353618861E+013.4068299569E+01+
*       5.8595476769E+00               0
GRID*                168               0-3.780739228E+013.7382198182E+01+
*       5.1930678603E+00               0
GRID*                169               0-3.454175190E+013.2936095601E+01+
*       1.5266273985E+01               0
GRID*                170               0-3.870815681E+013.2207918062E+01+
*       1.5266273985E+01               0
GRID*                171               0-3.616438459E+013.9235764316E+01+
*       1.5193067860E+01               0
GRID*                172               0-3.887370507E+013.4284761324E+01+
*       1.0459341846E+01               0
GRID*                173               0-4.033078950E+013.8507586777E+01+
*       1.5193067860E+01               0
GRID*                174               0-2.644937003E+013.4017348369E+01+
*       1.5859547677E+01               0
GRID*                175               0-2.933511281E+013.7819753517E+01+
*       5.8595476769E+00               0
GRID*                176               0-2.383055242E+013.7880469072E+01+
*       1.0000000000E+01               0
GRID*                177               0-2.088484036E+013.3610328654E+01+
*       1.0000000000E+01               0
GRID*                178               0-2.638940074E+013.3549613099E+01+
*       5.8595476769E+00               0
GRID*                179               0-2.903797172E+013.0563842996E+01+
*       5.2662739853E+00               0
GRID*                180               0-3.460250139E+013.0970862712E+01+
*       1.1125821662E+01               0
GRID*                181               0-3.618475958E+013.1082529466E+01+
*       5.2662739853E+00               0
GRID*                182               02.3808091861E+011.4533668236E+01+
*       2.0064820282E+01               0
GRID*                183               01.8869547620E+011.6618847560E+01+
*       2.1731487266E+01               0
GRID*                184               02.2115400058E+011.2757387832E+01+
*       2.1731487266E+01               0
GRID*                185               01.2717619515E+011.8874232683E+01+
*       2.1666677899E+01               0
GRID*                186               01.5483569678E+012.2691531590E+01+
*       1.8333344884E+01               0
GRID*                187               02.2519380017E+012.2725139117E+01+
*       1.6731487266E+01               0
GRID*                188               01.9753429855E+011.8907840211E+01+
*       2.0064820282E+01               0
GRID*                189               01.4535569763E+011.3024047242E+01+
*       1.5064832150E+01               0
GRID*                190               03.0918924060E+011.4363664596E+01+
*       1.1080742500E+01               0
GRID*                191               03.9690583214E+018.5670635611E+00+
*       4.3492552340E+00               0
GRID*                192               03.0343039257E+017.2610537345E+00+
*       6.7314872664E+00               0
GRID*                193               02.7356986743E+011.6941262916E+01+
*       6.7314872664E+00               0
GRID*                194               03.6704530700E+011.8247272743E+01+
*       4.3492552340E+00               0
GRID*                195               02.2971360283E+011.5028259496E+01+
*       3.3981540125E+00               0
GRID*                196               02.5588509052E+017.7967344792E+00+
*       3.3981540465E+00               0
GRID*                197               01.8285690052E+016.5288273848E+00+
*       8.3981539331E+00               0
GRID*                198               01.9685670232E+018.4994321116E+00+
*       -1.666666587E+00               0
GRID*                199               02.2302819000E+011.2679070945E+00+
*       -1.666666553E+00               0
GRID*                200               03.2120670983E+01-6.078619685E+00+
*       5.8462585885E+00               0
GRID*                201               03.9306729498E+013.8884877391E+00+
*       1.0000000000E+01               0
GRID*                202               03.0535070344E+019.6850887741E+00+
*       1.6731487266E+01               0
GRID*                203               03.2312702070E+01-3.654584646E+00+
*       1.5846258588E+01               0
GRID*                204               0-1.855164097E+01-6.751189790E+00+
*       8.9918854125E+00               0
GRID*                205               0-2.230273508E+01-1.267508805E+00+
*       -1.666711524E+00               0
GRID*                206               0-2.585453436E+01-8.019669554E+00+
*       3.9919304292E+00               0
GRID*                207               0-3.060906933E+01-7.483901619E+00+
*       7.3252636831E+00               0
GRID*                208               0-2.705727005E+01-7.317408698E-01+
*       1.6666217294E+00               0
GRID*                209               0-3.080144497E+01-9.905779693E+00+
*       1.7325263683E+01               0
GRID*                210               0-3.127740637E+01-9.594289859E+00+
*       1.2899027176E+01               0
GRID*                211               0-3.997541109E+01-5.996719013E+00+
*       1.5573763493E+01               0
GRID*                212               0-3.050536876E+01-2.109017725E+00+
*       1.7325263683E+01               0
GRID*                213               0-3.967933488E+011.8000429544E+00+
*       1.5573763493E+01               0
GRID*                214               0-3.325471181E+01-1.497733734E+01+
*       1.2338971467E+01               0
GRID*                215               0-4.195271653E+01-1.137976650E+01+
*       1.5013707784E+01               0
GRID*                216               0-4.242867793E+01-1.106827667E+01+
*       1.0587471276E+01               0
GRID*                217               0-8.502435935E+00-7.837254603E+01+
*       1.0000000000E+01               0
GRID*                218               0-3.978303545E+01-3.574840939E+00+
*       5.5737634926E+00               0
GRID*                219               0-2.762301681E+01-1.716411080E+01+
*       7.3252636831E+00               0
GRID*                220               0-3.679698294E+01-1.325505012E+01+
*       5.5737634926E+00               0
GRID*                221               0-3.877428838E+01-1.863809761E+01+
*       5.0137077837E+00               0
GRID*                222               06.1282227306E+012.2339670074E+01+
*       3.8829680755E+00               0
GRID*                223               05.9679740910E+011.5111834466E+01+
*       3.8829680755E+00               0
GRID*                224               05.6056154838E+011.9305460483E+01+
*       3.8829680755E+00               0
GRID*                225               06.5679964752E+011.3709988409E+01+
*       3.8829680755E+00               0
GRID*                226               06.7450821248E+011.9058660838E+01+
*       1.0000000000E+01               0
GRID*                227               06.3043525695E+011.9666731966E+01+
*       1.3882968076E+01               0
GRID*                228               06.4030265902E+011.1838177266E+01+
*       1.3882968076E+01               0
GRID*                229               06.8437561454E+011.1230106137E+01+
*       1.0000000000E+01               0
GRID*                230               0-2.607383289E+016.4177885725E+01+
*       3.4147677832E+00               0
GRID*                231               0-3.426565366E+016.9597533342E+01+
*       3.4147677832E+00               0
GRID*                232               0-3.226698244E+016.0688270790E+01+
*       3.4147677832E+00               0
GRID*                233               05.0288668373E+017.9390931123E+00+
*       1.4673591994E+01               0
GRID*                234               04.7908881955E+016.1128817939E+00+
*       4.6735919942E+00               0
GRID*                235               04.7908881955E+016.1128817939E+00+
*       1.4673591994E+01               0
GRID*                236               05.3816855425E+011.2123861374E+01+
*       8.5565600697E+00               0
GRID*                237               05.7744482148E+011.0133291276E+01+
*       3.8829680755E+00               0
GRID*                238               05.0288668373E+017.9390931123E+00+
*       4.6735919942E+00               0
GRID*                239               04.8285291347E+011.3087524720E+01+
*       4.6735919942E+00               0
GRID*                240               05.5741105122E+011.5281722884E+01+
*       3.8829680755E+00               0
GRID*                241               05.7744482148E+011.0133291276E+01+
*       1.3882968076E+01               0
GRID*                242               06.0516536087E+018.9850688756E+00+
*       1.3882968076E+01               0
GRID*                243               06.0516536087E+018.9850688756E+00+
*       3.8829680755E+00               0
GRID*                244               04.3313754833E+011.2799668816E+01+
*       9.0228472282E+00               0
GRID*                245               04.2737870031E+015.6970579546E+00+
*       4.6735919942E+00               0
GRID*                246               04.2929901117E+018.1210929943E+00+
*       1.4673591994E+01               0
GRID*                247               03.9882614300E+011.0991098601E+01+
*       1.4349255234E+01               0
GRID*                248               04.5238004530E+011.5957530326E+01+
*       4.3492552340E+00               0
GRID*                249               04.5709472919E+011.0692479177E+01+
*       4.6735919942E+00               0
GRID*                250               04.2662186102E+011.3562484783E+01+
*       4.3492552340E+00               0
GRID*                251               04.8771603449E+011.2357613671E+01+
*       1.4673591994E+01               0
GRID*                252               04.5724316633E+011.5227619278E+01+
*       1.4349255234E+01               0
GRID*                253               03.7171621307E+011.8308295501E+01+
*       1.4349255234E+01               0
GRID*                254               02.7824077350E+011.7002285675E+01+
*       1.6731487266E+01               0
GRID*                255               03.7449903206E+012.6852357080E+01+
*       3.4347762680E+00               0
GRID*                256               04.1011840523E+012.4274758760E+01+
*       7.7840315021E+00               0
GRID*                257               04.1635054402E+011.9074743891E+01+
*       4.3492552340E+00               0
GRID*                258               04.2380426908E+012.7679828229E+01+
*       3.4347762680E+00               0
GRID*                259               0-5.639085328E+01-1.824772277E+01+
*       9.8415141478E+00               0
GRID*                260               0-5.452013356E+01-1.857050385E+01+
*       6.1334078035E+00               0
GRID*                261               0-5.035462736E+01-1.406961492E+01+
*       8.7218141280E+00               0
GRID*                262               0-5.044220929E+01-2.062943200E+01+
*       1.1147115587E+01               0
GRID*                263               0-4.848390765E+01-1.439239601E+01+
*       5.0137077837E+00               0
GRID*                264               0-4.756022040E+01-1.909247336E+01+
*       5.0137077837E+00               0
GRID*                265               0-5.359644632E+01-2.327058121E+01+
*       6.1334078035E+00               0
GRID*                266               04.4681275008E+014.1732870702E+01+
*       3.3679243185E+00               0
GRID*                267               03.9995254192E+014.1810155669E+01+
*       3.3679243185E+00               0
GRID*                268               04.4505876554E+013.5898879656E+01+
*       3.4347762680E+00               0
GRID*                269               04.1932611483E+013.8713834144E+01+
*       6.8027005865E+00               0
GRID*                270               03.9819855738E+013.5976164623E+01+
*       3.4347762680E+00               0
GRID*                271               03.8935155137E+014.0783204275E+01+
*       1.3367924318E+01               0
GRID*                272               03.8759756683E+013.4949213229E+01+
*       1.3434776268E+01               0
GRID*                273               04.3444153614E+014.6717861073E+01+
*       1.3367924318E+01               0
GRID*                274               04.3268755160E+014.0883870027E+01+
*       1.3434776268E+01               0
GRID*                275               03.5406146913E+013.7358132917E+01+
*       3.4347762680E+00               0
GRID*                276               03.2408690567E+013.9427503049E+01+
*       1.0000000000E+01               0
GRID*                277               03.5581545367E+014.3192123963E+01+
*       3.3679243185E+00               0
GRID*                278               03.5581545367E+014.3192123963E+01+
*       1.3367924318E+01               0
GRID*                279               0-3.470474705E+015.6304474883E+01+
*       3.4147677832E+00               0
GRID*                280               0-3.174226448E+015.7366519506E+01+
*       3.4147677832E+00               0
GRID*                281               0-3.261365791E+015.4764537972E+01+
*       3.4147677832E+00               0
GRID*                282               03.6924927708E+014.8211328900E+01+
*       3.3679243185E+00               0
GRID*                283               03.7701782526E+014.5313154386E+01+
*       3.3679243185E+00               0
GRID*                284               03.7701782526E+014.5313154386E+01+
*       1.3367924318E+01               0
GRID*                285               02.4691949816E+01-3.375533056E+01+
*       6.3448610363E+00               0
GRID*                286               02.6842836062E+01-2.399487991E+01+
*       1.2191119625E+01               0
GRID*                287               02.0885174117E+01-3.361012301E+01+
*       1.0000000000E+01               0
GRID*                288               02.4752252870E+01-3.422286019E+01+
*       1.6344861036E+01               0
GRID*                289               05.0204147255E+01-4.346411519E+01+
*       1.4364031339E+01               0
GRID*                290               05.6651529364E+01-4.500918896E+01+
*       1.0000000000E+01               0
GRID*                291               05.0159227393E+01-4.510443015E+01+
*       4.3640313388E+00               0
GRID*                292               04.7851166087E+01-4.071914091E+01+
*       4.3640313388E+00               0
GRID*                293               05.4343468058E+01-4.062389972E+01+
*       1.0000000000E+01               0
GRID*                294               04.3864233238E+01-3.792842577E+01+
*       8.5760583094E+00               0
GRID*                295               04.4264513256E+01-3.416986548E+01+
*       4.2120269705E+00               0
GRID*                296               04.4112125302E+01-3.980079608E+01+
*       4.3640313388E+00               0
GRID*                297               04.0438103971E+01-3.984975187E+01+
*       1.0471853853E+01               0
GRID*                298               04.0590491925E+01-3.421882126E+01+
*       1.0319849485E+01               0
GRID*                299               04.0838383989E+01-3.609119157E+01+
*       6.1078225145E+00               0
GRID*                300               04.1016147980E+01-4.356355116E+01+
*       4.3640313388E+00               0
GRID*                301               03.7742406668E+01-3.985394665E+01+
*       6.1078225145E+00               0
GRID*                302               0-4.255372654E+013.2002428801E+01+
*       5.2662739853E+00               0
GRID*                303               0-4.417635924E+013.8302097516E+01+
*       5.1930678603E+00               0
GRID*                304               0-3.189318092E+013.5921865704E+01+
*       1.5859547677E+01               0
GRID*                305               0-3.482127435E+012.5727027876E+01+
*       1.5266273985E+01               0
GRID*                306               0-3.217270337E+012.8712797979E+01+
*       1.5859547677E+01               0
GRID*                307               0-3.807918482E+011.8635203848E+01+
*       1.5266273985E+01               0
GRID*                308               0-3.675666882E+011.3787716985E+01+
*       1.0000000000E+01               0
GRID*                309               0-3.592855637E+012.3137605745E+01+
*       5.2662739853E+00               0
GRID*                310               0-3.059733318E+012.1430028644E+01+
*       1.1325212647E+01               0
GRID*                311               0-3.142544563E+011.2080139884E+01+
*       1.6058938662E+01               0
GRID*                312               0-2.927481718E+011.6582541781E+01+
*       6.0589386621E+00               0
GRID*                313               0-2.794876220E+012.4415798747E+01+
*       1.1918486339E+01               0
GRID*                314               0-2.238423253E+012.4008779032E+01+
*       6.0589386621E+00               0
GRID*                315               0-4.230362226E+012.8372993271E+01+
*       1.5266273985E+01               0
GRID*                316               0-4.392625495E+013.4672661986E+01+
*       1.5193067860E+01               0
GRID*                317               01.1582859203E+016.2545970025E+01+
*       1.5812270292E+01               0
GRID*                318               08.3612537245E-026.8170345377E+01+
*       1.0000000000E+01               0
GRID*                319               09.9436745806E+006.4500277934E+01+
*       5.8122702919E+00               0
GRID*                320               01.3371538438E+015.7471923970E+01+
*       5.8122702919E+00               0
GRID*                321               03.5114763947E+006.1141991413E+01+
*       1.0000000000E+01               0
GRID*                322               02.0892067975E+016.3162934769E+01+
*       1.5812270292E+01               0
GRID*                323               01.8102811678E+015.7155202865E+01+
*       1.5812270292E+01               0
GRID*                324               02.8895658532E+016.9234436929E+01+
*       1.5812270292E+01               0
GRID*                325               02.7666296847E+015.9774702834E+01+
*       1.5812270292E+01               0
GRID*                326               02.1573683020E+015.4030106577E+01+
*       5.8122702919E+00               0
GRID*                327               01.6998177743E+014.7728371835E+01+
*       5.2389947407E+00               0
GRID*                328               01.6867415969E+015.2574167840E+01+
*       1.1051265033E+01               0
GRID*                329               01.9572513999E+015.6702048896E+01+
*       5.8122702919E+00               0
GRID*                330               01.4997008722E+015.0400314155E+01+
*       5.2389947407E+00               0
GRID*                331               08.7960331612E+005.1170189229E+01+
*       5.2389947407E+00               0
GRID*                332               01.0031428870E+015.5751224253E+01+
*       1.0000000000E+01               0
GRID*                333               01.3527306401E+015.0853468123E+01+
*       1.5238994741E+01               0
GRID*                334               01.6998177743E+014.7728371835E+01+
*       1.5238994741E+01               0
GRID*                335               02.1573683020E+015.4030106577E+01+
*       1.5812270292E+01               0
GRID*                336               0-3.924190876E+01-1.869820030E+01+
*       1.5013707784E+01               0
GRID*                337               0-2.809063720E+01-1.722421350E+01+
*       1.7325263683E+01               0
GRID*                338               0-3.361021377E+01-2.088497376E+01+
*       1.0000000000E+01               0
GRID*                339               0-4.495404738E+01-3.990664779E+00+
*       5.5737634926E+00               0
GRID*                340               06.6454888044E+01-5.145372781E+00+
*       1.4559086339E+01               0
GRID*                341               06.3241378407E+01-7.230577926E+00+
*       1.4559086339E+01               0
GRID*                342               06.3558497745E+01-3.926086304E+00+
*       1.4559086339E+01               0
GRID*                343               0-4.438425147E+01-1.580600677E+01+
*       5.0137077837E+00               0
GRID*                344               0-4.642521249E+01-1.204214997E+01+
*       5.0137077837E+00               0
GRID*                345               0-1.480168420E+01-1.324681424E+01+
*       1.5658597016E+01               0
GRID*                346               0-1.480199650E+01-1.324661603E+01+
*       8.9918961016E+00               0
GRID*                347               0-4.388405078E+01-8.645025760E+00+
*       1.5573763493E+01               0
GRID*                348               0-4.586135622E+01-1.402807325E+01+
*       1.5013707784E+01               0
GRID*                349               03.1456155186E+01-3.440299890E+01+
*       6.3448610363E+00               0
GRID*                350               03.1342801289E+01-3.277638346E+01+
*       1.6344861036E+01               0
GRID*                351               03.2773622632E+01-3.626628675E+01+
*       1.6344861036E+01               0
GRID*                352               02.9429434396E+01-3.615750472E+01+
*       1.6344861036E+01               0
GRID*                353               03.0150437566E+01-3.887801440E+01+
*       1.6344861036E+01               0
GRID*                354               02.7251974137E+01-3.810224543E+01+
*       6.3448610363E+00               0
GRID*                355               03.5758822231E+01-3.528903870E+01+
*       6.1078225145E+00               0
GRID*                356               03.2861695614E+01-3.525410755E+01+
*       1.2452683551E+01               0
GRID*                357               03.1554641182E+01-3.898828524E+01+
*       6.1078225145E+00               0
GRID*                358               03.4453104611E+01-3.976405421E+01+
*       1.6107822515E+01               0
GRID*                359               03.7076289676E+01-3.715232656E+01+
*       1.6107822515E+01               0
GRID*                360               03.7539819092E+01-4.098258078E+01+
*       1.1108028687E+01               0
GRID*                361               03.7451746110E+01-4.199475998E+01+
*       1.5000206172E+01               0
GRID*                362               03.4828561044E+01-4.460648763E+01+
*       1.5000206172E+01               0
GRID*                363               0-3.749938597E+01-4.019506722E+01+
*       1.3802684365E+01               0
GRID*                364               0-3.978637162E+01-3.515620852E+01+
*       1.3802684365E+01               0
GRID*                365               0-3.577361216E+01-3.459330439E+01+
*       3.8026843648E+00               0
GRID*                366               0-3.923978354E+01-3.247244330E+01+
*       8.5621773956E+00               0
GRID*                367               0-3.733080239E+01-3.055939031E+01+
*       4.7594930308E+00               0
GRID*                368               0-4.293615841E+01-3.150700824E+01+
*       4.7594930308E+00               0
GRID*                369               0-3.537993884E+01-3.671890815E+01+
*       1.3802684365E+01               0
GRID*                370               0-3.693712906E+01-3.268499407E+01+
*       1.4759493031E+01               0
GRID*                371               03.4646220435E+01-6.159921220E+01+
*       1.5444758715E+01               0
GRID*                372               03.1003959940E+01-5.924209218E+01+
*       1.5444758715E+01               0
GRID*                373               03.4448057449E+01-5.613036532E+01+
*       1.4349680461E+01               0
GRID*                374               03.8090317944E+01-5.848748534E+01+
*       1.4349680461E+01               0
GRID*                375               03.2927046448E+01-5.905555557E+01+
*       9.7944391760E+00               0
GRID*                376               03.7197468405E+01-5.185919972E+01+
*       1.6963223469E+01               0
GRID*                377               03.6812176318E+01-5.542549523E+01+
*       1.6963223469E+01               0
GRID*                378               03.4833349536E+01-5.256406981E+01+
*       1.4349680461E+01               0
GRID*                379               03.8735262827E+01-5.523895862E+01+
*       1.1312903929E+01               0
GRID*                380               03.7329232663E+01-6.141634625E+01+
*       1.0000000000E+01               0
GRID*                381               04.1576016386E+01-6.143988211E+01+
*       1.0000000000E+01               0
GRID*                382               03.5610058677E+01-5.887268962E+01+
*       4.3496804606E+00               0
GRID*                383               03.9856842400E+01-5.889622549E+01+
*       4.3496804606E+00               0
GRID*                384               04.2301900859E+01-5.503636800E+01+
*       4.3496804606E+00               0
GRID*                385               04.0041494621E+01-4.975159254E+01+
*       8.7137117994E+00               0
GRID*                386               04.5972251523E+01-4.884413184E+01+
*       4.3640313388E+00               0
GRID*                387               03.7977096034E+01-5.449308953E+01+
*       4.3496804606E+00               0
GRID*                388               04.1647446697E+01-4.830085337E+01+
*       4.3640313388E+00               0
GRID*                389               03.9507328610E+01-5.017955136E+01+
*       1.1963429641E+01               0
GRID*                390               03.9725256118E+01-5.010071449E+01+
*       1.6963223469E+01               0
GRID*                391               03.8133203032E+01-4.574617732E+01+
*       1.5000206172E+01               0
GRID*                392               03.5605415320E+01-4.750466255E+01+
*       1.5000206172E+01               0
GRID*                393               04.3313986168E+01-5.272477914E+01+
*       1.6963223469E+01               0
GRID*                394               03.9445394744E+01-5.351289788E+01+
*       1.6963223469E+01               0
GRID*                395               04.0454436813E+01-5.778261525E+01+
*       1.6963223469E+01               0
GRID*                396               04.4666019729E+01-5.433149792E+01+
*       6.9632234687E+00               0
GRID*                397               04.2220961269E+01-5.819135540E+01+
*       6.9632234687E+00               0
GRID*                398               03.2713112207E+01-5.468510028E+01+
*       1.4349680461E+01               0
GRID*                399               02.9269014698E+01-5.779682714E+01+
*       1.5444758715E+01               0
GRID*                400               04.9199719852E+01-6.033119892E+01+
*       1.6963223469E+01               0
GRID*                401               03.2165961167E+01-6.198441649E+01+
*       5.4447587154E+00               0
GRID*                402               03.0973507717E+01-5.890850815E+01+
*       5.4447587154E+00               0
GRID*                403               03.4417605226E+01-5.579678129E+01+
*       4.3496804606E+00               0
GRID*                404               03.2713112207E+01-5.468510028E+01+
*       4.3496804606E+00               0
GRID*                405               02.9269014698E+01-5.779682714E+01+
*       5.4447587154E+00               0
GRID*                406               04.0813560404E+01-4.469218529E+01+
*       9.3642375110E+00               0
GRID*                407               03.8117863101E+01-4.469638006E+01+
*       5.0002061721E+00               0
GRID*                408               03.8749161817E+01-4.943368228E+01+
*       5.0002061721E+00               0
GRID*                409               03.4833349536E+01-5.256406981E+01+
*       4.3496804606E+00               0
GRID*                410               03.5605415320E+01-4.750466255E+01+
*       5.0002061721E+00               0
GRID*                411               03.7143209741E+01-5.088442145E+01+
*       9.3498866327E+00               0
GRID*                412               0-3.669990290E+014.9872958783E+01+
*       4.7883624658E+00               0
GRID*                413               0-3.743310647E+015.2661738722E+01+
*       1.0384125072E+01               0
GRID*                414               0-3.377648144E+015.2716277477E+01+
*       5.5957626065E+00               0
GRID*                415               0-3.879099204E+015.1412895694E+01+
*       4.7883624658E+00               0
GRID*                416               0-3.586757059E+015.4256214388E+01+
*       5.5957626065E+00               0
GRID*                417               0-1.400153658E+01-1.364767839E+01+
*       -3.333367582E+00               0
GRID*                418               0-2.593444424E+016.1962113908E+01+
*       1.3414767783E+01               0
GRID*                419               0-1.982423919E+016.6538421226E+01+
*       1.0000000000E+01               0
GRID*                420               0-2.223237348E+016.1164379750E+01+
*       1.0000000000E+01               0
GRID*                421               0-2.848196718E+015.8803844248E+01+
*       3.4147677832E+00               0
GRID*                422               0-3.325449496E+015.8116684478E+01+
*       1.5595762606E+01               0
GRID*                423               0-3.334686148E+015.7553317911E+01+
*       9.0105303896E+00               0
GRID*                424               0-3.209167142E+016.0164944973E+01+
*       1.3414767783E+01               0
GRID*                425               0-3.139669496E+015.4542488933E+01+
*       1.5595762606E+01               0
GRID*                426               0-3.023387143E+015.6590749428E+01+
*       1.3414767783E+01               0
GRID*                427               0-3.377648144E+015.2716277477E+01+
*       1.5595762606E+01               0
GRID*                428               0-3.669990290E+014.9872958783E+01+
*       1.4788362466E+01               0
GRID*                429               0-1.882010061E+015.3017501085E+00+
*       -3.333378271E+00               0
GRID*                430               0-1.507014384E+011.1796403603E+01+
*       -3.333333333E+00               0
GRID*                431               0-1.572176107E+011.3932621314E+01+
*       7.7256053287E+00               0
GRID*                432               0-1.947171784E+017.4369968598E+00+
*       1.4392316933E+01               0
GRID*                433               0-1.947171784E+017.4379678195E+00+
*       7.7255603915E+00               0
GRID*                434               0-2.236847561E+013.5472550535E+00+
*       2.1666711286E+01               0
GRID*                435               0-2.684035176E+011.0985222873E+01+
*       1.9392271678E+01               0
GRID*                436               0-2.695356948E+014.6421720642E+00+
*       1.8333378271E+01               0
GRID*                437               0-2.438740589E+011.1044389219E+01+
*       2.1058938662E+01               0
GRID*                438               0-1.991552974E+013.6064213993E+00+
*       2.3333378271E+01               0
GRID*                439               0-2.435071729E+011.6405355963E+01+
*       1.9392271678E+01               0
GRID*                440               0-1.913603299E+011.7594466985E+01+
*       1.4147785513E+01               0
GRID*                441               0-1.091420007E+011.6652123619E+01+
*       9.7555135179E+00               0
GRID*                442               0-2.047161848E+011.9622888511E+01+
*       2.7256054082E+00               0
GRID*                443               0-1.566405748E+012.2342390816E+01+
*       4.7555135974E+00               0
GRID*                444               0-1.224978557E+011.8680545145E+01+
*       -1.666666587E+00               0
GRID*                445               05.1010902863E+011.9539212781E+01+
*       1.0000000000E+01               0
GRID*                446               04.7092903018E+011.8632688746E+01+
*       1.0000000000E+01               0
GRID*                447               05.0695853146E+011.5515475181E+01+
*       1.0000000000E+01               0
GRID*                448               0-7.606533168E+00-6.328959076E+01+
*       1.0000000000E+01               0
GRID*                449               02.2747974505E+00-4.531303793E+01+
*       4.9569005436E+00               0
GRID*                450               0-3.238584866E+00-4.579875873E+01+
*       4.8280666271E+00               0
GRID*                451               0-5.773201802E+00-5.024377922E+01+
*       1.4828066627E+01               0
GRID*                452               0-2.598194856E-01-4.975805842E+01+
*       1.4956900544E+01               0
GRID*                453               0-1.070164237E+00-4.355971890E+01+
*       1.0000000000E+01               0
GRID*                454               0-1.056832148E+01-5.430162931E+01+
*       1.4828066627E+01               0
GRID*                455               0-1.169853840E+01-4.884523593E+01+
*       1.4828066627E+01               0
GRID*                456               0-8.614391817E+00-4.569483791E+01+
*       1.4828066627E+01               0
GRID*                457               01.3840345012E+01-1.457840553E+01+
*       2.3333309362E+01               0
GRID*                458               01.7590586623E+01-8.083128577E+00+
*       2.3333333333E+01               0
GRID*                459               0-8.831627851E+00-4.969697006E+01+
*       4.8280666271E+00               0
GRID*                460               0-9.301516620E+00-5.446309421E+01+
*       4.8280666271E+00               0
GRID*                461               0-1.494917235E+01-5.120515846E+01+
*       4.8280666271E+00               0
GRID*                462               0-1.644688476E+015.6031296036E+01+
*       1.4598719475E+01               0
GRID*                463               0-1.092168214E+015.0939506428E+01+
*       1.4598719475E+01               0
GRID*                464               0-1.286215242E+015.2816385384E+01+
*       4.5987194755E+00               0
GRID*                465               0-1.610011820E+016.1107738757E+01+
*       1.0000000000E+01               0
GRID*                466               0-1.057491559E+015.6015949149E+01+
*       1.0000000000E+01               0
GRID*                467               0-2.145076595E+013.9706680277E+01+
*       1.0000000000E+01               0
GRID*                468               0-2.933511281E+013.7819753517E+01+
*       1.5859547677E+01               0
GRID*                469               03.6269056487E+016.9861960624E+01+
*       1.0000000000E+01               0
GRID*                470               02.8816319201E+015.9503426277E+01+
*       5.8122702919E+00               0
GRID*                471               03.5039694802E+016.0402226528E+01+
*       1.0000000000E+01               0
GRID*                472               0-9.759501008E+004.3619546498E+01+
*       1.4598719475E+01               0
GRID*                473               0-4.302837370E+004.8733873374E+01+
*       1.4598719475E+01               0
GRID*                474               0-1.758282062E+014.6537619647E+01+
*       1.4598719475E+01               0
GRID*                475               0-1.797425787E+014.9511709015E+01+
*       4.5987194755E+00               0
GRID*                476               0-1.758282062E+014.6537619647E+01+
*       4.5987194755E+00               0
GRID*                477               0-7.896462344E+002.9714333851E+01+
*       8.0888468512E+00               0
GRID*                478               0-7.336685839E+004.3427320537E+01+
*       4.5987194755E+00               0
GRID*                479               0-1.376869548E+013.4026955976E+01+
*       1.2687566327E+01               0
GRID*                480               0-1.031927751E+012.9906559812E+01+
*       1.8088846851E+01               0
GRID*                481               0-3.887267868E+003.9306924373E+01+
*       1.0000000000E+01               0
GRID*                482               0-1.707686431E+014.0909003293E+01+
*       1.4598719475E+01               0
GRID*                483               0-9.764501802E+004.8450623849E+01+
*       4.5987194755E+00               0
GRID*                484               0-3.912708425E+014.3445227721E+01+
*       1.5193067860E+01               0
GRID*                485               0-3.905717933E+014.8062222715E+01+
*       1.4788362466E+01               0
GRID*                486               0-4.042643284E+014.5201425033E+01+
*       9.9814303261E+00               0
GRID*                487               0-4.587021010E+014.2560359097E+01+
*       1.5193067860E+01               0
GRID*                488               0-4.580030517E+014.7177354091E+01+
*       1.4788362466E+01               0
GRID*                489               0-3.924259087E+014.7168580307E+01+
*       4.7883624658E+00               0
GRID*                490               0-3.931249579E+014.2551585313E+01+
*       5.1930678603E+00               0
GRID*                491               0-4.238235800E+014.4463109544E+01+
*       5.1930678603E+00               0
GRID*                492               0-4.231245308E+014.9080104538E+01+
*       4.7883624658E+00               0
GRID*                493               0-4.760627643E+013.2390329463E+01+
*       1.0000000000E+01               0
GRID*                494               0-4.955023157E+014.0278026574E+01+
*       1.0000000000E+01               0
GRID*                495               0-4.109064939E+012.5213050965E+01+
*       5.2662739853E+00               0
GRID*                496               0-4.614319928E+012.5600951628E+01+
*       1.0000000000E+01               0
GRID*                497               0-4.267791580E+011.6300284192E+01+
*       4.7716160567E+00               0
GRID*                498               0-4.759655673E+011.2864096398E+01+
*       4.7716160567E+00               0
GRID*                499               0-4.784000882E+011.8375729412E+01+
*       4.7716160567E+00               0
GRID*                500               0-3.630846576E+014.6898869218E+01+
*       4.7883624658E+00               0
GRID*                501               0-3.523608109E+01-4.985218522E+01+
*       1.3954549051E+01               0
GRID*                502               0-3.238778178E+01-5.294465102E+01+
*       1.5796221499E+01               0
GRID*                503               0-3.517636137E+01-5.294132319E+01+
*       1.5796221499E+01               0
GRID*                504               0-4.863770448E+01-2.662303453E+01+
*       1.0892900834E+01               0
GRID*                505               0-5.939583324E+01-2.697739464E+01+
*       6.1334078035E+00               0
GRID*                506               0-4.575571560E+01-2.508607589E+01+
*       4.7594930308E+00               0
GRID*                507               0-4.113674951E+01-2.667147808E+01+
*       4.7594930308E+00               0
GRID*                508               0-3.696978357E+01-2.463170014E+01+
*       4.7594930308E+00               0
GRID*                509               0-4.721600532E+01-3.630902180E+01+
*       5.4170260200E+00               0
GRID*                510               0-4.260147857E+01-2.244492669E+01+
*       9.7732008145E+00               0
GRID*                511               0-4.641128406E+01-1.952215135E+01+
*       1.5013707784E+01               0
GRID*                512               0-4.460677926E+01-2.551575388E+01+
*       1.4759493031E+01               0
GRID*                513               0-3.743740396E+01-2.469180284E+01+
*       1.4759493031E+01               0
GRID*                514               0-4.294125431E+01-2.067787555E+01+
*       5.0137077837E+00               0
GRID*                515               04.6542128141E+012.7207001424E+01+
*       1.0000000000E+01               0
GRID*                516               04.5918914262E+013.2407016293E+01+
*       1.3434776268E+01               0
GRID*                517               04.5173541755E+012.3801931956E+01+
*       1.4349255234E+01               0
GRID*                518               05.0097343556E+013.1500550176E+01+
*       1.0000000000E+01               0
GRID*                519               04.5935642324E+013.1973376980E+01+
*       3.4347762680E+00               0
GRID*                520               04.8667577787E+013.5426052852E+01+
*       1.0000000000E+01               0
GRID*                521               04.6017418685E+014.3902906585E+01+
*       1.0000000000E+01               0
GRID*                522               02.6261230364E+013.7114523101E+01+
*       1.0000000000E+01               0
GRID*                523               02.8984006334E+013.1981662982E+01+
*       1.0000000000E+01               0
GRID*                524               03.8128922882E+013.2225272799E+01+
*       3.4347762680E+00               0
GRID*                525               03.2612296480E+013.2636233281E+01+
*       1.3434776268E+01               0
GRID*                526               03.7916993813E+012.6913379839E+01+
*       1.3434776268E+01               0
GRID*                527               03.3609683990E+012.0885893822E+01+
*       1.0000000000E+01               0
GRID*                528               04.2496443912E+01-1.099276458E+01+
*       1.0000000000E+01               0
GRID*                529               04.2580802330E+01-1.820868003E+01+
*       1.0000000000E+01               0
GRID*                530               03.6756482927E+01-1.378863173E+01+
*       1.0000000000E+01               0
GRID*                531               03.6840841345E+01-2.100454718E+01+
*       1.0000000000E+01               0
GRID*                532               01.5291014788E+014.0439236739E+01+
*       5.2389947407E+00               0
GRID*                533               09.9955893897E+004.5983126917E+01+
*       5.2389947407E+00               0
GRID*                534               01.4764652455E+014.5583221364E+01+
*       5.2389947407E+00               0
GRID*                535               01.7775032190E+014.4830196955E+01+
*       5.2389947407E+00               0
GRID*                536               02.2172632836E+015.7977356746E+01+
*       1.5812270292E+01               0
GRID*                537               08.4475774657E+004.8000118592E+01+
*       1.5238994741E+01               0
GRID*                538               04.9516999343E+005.2897874723E+01+
*       1.0000000000E+01               0
GRID*                539               06.1512561628E+004.7710812410E+01+
*       1.0000000000E+01               0
GRID*                540               05.9529647799E+01-6.894501721E+00+
*       1.4559086339E+01               0
GRID*                541               05.3168089108E+01-9.582467092E+00+
*       1.4308818354E+01               0
GRID*                542               06.0595750289E+01-1.225535702E+01+
*       1.4559086339E+01               0
GRID*                543               05.1939623891E+01-2.997856321E+01+
*       1.0000000000E+01               0
GRID*                544               05.7689898319E+01-3.063256549E+01+
*       1.0000000000E+01               0
GRID*                545               05.6530149285E+01-2.697258583E+01+
*       5.7787883301E+00               0
GRID*                546               04.4729699479E+01-1.125177787E+01+
*       1.4308818354E+01               0
GRID*                547               05.0412984686E+01-1.214181648E+01+
*       1.4308818354E+01               0
GRID*                548               01.6543676052E+01-5.061893339E+01+
*       1.5635832051E+01               0
GRID*                549               01.7885560685E+01-5.403005132E+01+
*       1.5635832051E+01               0
GRID*                550               01.9935926068E+01-5.129605545E+01+
*       1.5635832051E+01               0
GRID*                551               02.6370551605E+01-5.702105740E+01+
*       1.5444758715E+01               0
GRID*                552               09.0025435733E+00-4.811780828E+01+
*       1.4956900544E+01               0
GRID*                553               01.0626274680E+01-5.401250256E+01+
*       1.0592732595E+01               0
GRID*                554               01.3329456828E+01-5.337614594E+01+
*       1.5635832051E+01               0
GRID*                555               05.7883243493E+00-5.087502083E+01+
*       1.4956900544E+01               0
GRID*                556               01.4043673924E+01-5.866737310E+01+
*       1.0146820124E+01               0
GRID*                557               01.5586132164E+01-6.193211436E+01+
*       4.5109880731E+00               0
GRID*                558               01.9709865399E+01-5.977836892E+01+
*       5.6358320509E+00               0
GRID*                559               01.9441542433E+01-6.250866631E+01+
*       1.5635832051E+01               0
GRID*                560               01.5317809198E+01-6.466241175E+01+
*       1.4510988073E+01               0
GRID*                561               02.0984000672E+01-6.577340756E+01+
*       1.0000000000E+01               0
GRID*                562               02.3825178049E+01-5.934045505E+01+
*       1.1080590766E+01               0
GRID*                563               02.5099313323E+01-6.533549369E+01+
*       1.5444758715E+01               0
GRID*                564               02.5367636289E+01-6.260519630E+01+
*       5.4447587154E+00               0
GRID*                565               02.0712780715E+01-5.419423001E+01+
*       1.5635832051E+01               0
GRID*                566               02.0712780715E+01-5.419423001E+01+
*       5.6358320509E+00               0
GRID*                567               01.5844429349E+01-5.774956053E+01+
*       1.5635832051E+01               0
GRID*                568               0-6.672157642E+01-7.436090072E+00+
*       1.4692053271E+01               0
GRID*                569               0-6.956277508E+01-1.340968113E+01+
*       1.0000000000E+01               0
GRID*                570               0-6.787716045E+01-7.505761274E+00+
*       4.6920532714E+00               0
GRID*                571               0-6.426127163E+01-4.432690173E+00+
*       4.6920532714E+00               0
GRID*                572               0-6.594688626E+01-1.033661003E+01+
*       1.0000000000E+01               0
GRID*                573               0-6.539181858E+014.8632601040E+00+
*       4.6920532714E+00               0
GRID*                574               0-6.370336630E+011.2507377104E+01+
*       1.0000000000E+01               0
GRID*                575               0-6.334750951E+016.1119467861E+00+
*       1.4692053271E+01               0
GRID*                576               0-6.278961977E+013.8196508203E-01+
*       4.6920532714E+00               0
GRID*                577               0-6.110116749E+018.0260820821E+00+
*       1.0000000000E+01               0
GRID*                578               0-6.239818238E+01-2.592124214E+00+
*       1.4692053271E+01               0
GRID*                579               0-6.162349222E+01-5.492644173E+00+
*       1.0000000000E+01               0
GRID*                580               0-6.278961977E+013.8196508203E-01+
*       1.4692053271E+01               0
GRID*                581               0-6.239818238E+01-2.592124214E+00+
*       4.6920532714E+00               0
GRID*                582               0-6.435207330E+01-1.203881769E+00+
*       4.6920532714E+00               0
GRID*                583               01.6583832620E+01-7.755656840E+01+
*       1.0000000000E+01               0
GRID*                584               04.6389694550E+00-5.051516311E+01+
*       4.9569005436E+00               0
GRID*                585               0-8.744128616E-01-5.100088391E+01+
*       4.8280666271E+00               0
GRID*                586               04.6976948091E+00-4.550525080E+01+
*       1.4956900544E+01               0
GRID*                587               06.2515220625E+00-4.450903646E+01+
*       1.0000000000E+01               0
GRID*                588               03.8873500580E+00-3.930691128E+01+
*       1.0000000000E+01               0
GRID*                589               01.0556370827E+01-4.712159394E+01+
*       1.0000000000E+01               0
GRID*                590               04.8673986793E+01-3.884780050E+01+
*       1.0000000000E+01               0
GRID*                591               05.2227693622E+01-3.395856701E+01+
*       1.0000000000E+01               0
GRID*                592               03.8120002484E+01-2.992956142E+01+
*       1.6107822515E+01               0
GRID*                593               03.6714462057E+01-2.907845277E+01+
*       1.0000000000E+01               0
GRID*                594               04.1546131751E+01-2.800823533E+01+
*       1.4212026971E+01               0
GRID*                595               03.9184951498E+01-3.336771261E+01+
*       4.2120269705E+00               0
GRID*                596               04.1694303246E+01-2.435753029E+01+
*       1.0000000000E+01               0
GRID*                597               03.9791964878E+01-3.339371606E+01+
*       1.6107822515E+01               0
GRID*                598               04.3218094144E+01-3.147238997E+01+
*       1.4212026971E+01               0
GRID*                599               03.5645468334E+01-3.366242327E+01+
*       1.6107822515E+01               0
GRID*                600               04.4610522297E+01-2.321861237E+01+
*       1.5778788330E+01               0
GRID*                601               04.4534665990E+01-4.168801597E+01+
*       1.4364031339E+01               0
GRID*                602               04.4687053944E+01-3.605708536E+01+
*       1.4212026971E+01               0
GRID*                603               04.1260924677E+01-3.797841146E+01+
*       1.6107822515E+01               0
GRID*                604               06.3824369857E+01-2.829646612E+00+
*       6.7515977722E+00               0
GRID*                605               06.6352020120E+011.3271492628E+00+
*       2.1925114333E+00               0
GRID*                606               06.5803241131E+01-3.683684529E+00+
*       4.5590863388E+00               0
GRID*                607               06.2777760979E+01-6.422197630E+00+
*       4.5590863388E+00               0
GRID*                608               06.3326539969E+01-1.411363838E+00+
*       2.1925114333E+00               0
GRID*                609               05.9529647799E+01-6.894501721E+00+
*       4.5590863388E+00               0
GRID*                610               06.1909434304E+01-5.068290391E+00+
*       4.5590863388E+00               0
GRID*                611               06.7114895470E+01-1.072326545E+01+
*       1.4559086339E+01               0
GRID*                612               06.0971405281E+01-9.048762869E+00+
*       4.5590863388E+00               0
GRID*                613               05.4609846589E+01-1.173672824E+01+
*       4.3088183541E+00               0
GRID*                614               06.4349432560E+01-3.018821571E+01+
*       1.0000000000E+01               0
GRID*                615               0-2.259445082E+01-2.412038119E+00+
*       2.1666711286E+01               0
GRID*                616               0-1.855164097E+01-6.752160749E+00+
*       1.5658641954E+01               0
GRID*                617               0-2.614625010E+01-9.163227909E+00+
*       2.0658596699E+01               0
GRID*                618               0-6.359839716E+01-1.914344609E+01+
*       6.1334078035E+00               0
GRID*                619               0-6.800209024E+01-2.238062323E+01+
*       1.0000000000E+01               0
GRID*                620               0-6.088212828E+01-2.804471698E+01+
*       1.6133407803E+01               0
GRID*                621               0-6.244281313E+01-1.907377489E+01+
*       1.6133407803E+01               0
GRID*                622               0-5.801371870E+01-2.002287283E+01+
*       6.1334078035E+00               0
GRID*                623               0-5.792613677E+01-1.346305575E+01+
*       3.7081063443E+00               0
GRID*                624               0-5.244750998E+01-2.370025919E+01+
*       1.6133407803E+01               0
GRID*                625               0-5.181000020E+01-1.164636401E+01+
*       1.3708106344E+01               0
GRID*                626               0-5.607443718E+01-1.249005455E+01+
*       1.3708106344E+01               0
GRID*                627               0-5.012579319E+01-1.487176378E+01+
*       1.5013707784E+01               0
GRID*                628               0-5.712151577E+01-2.382940540E+01+
*       1.6133407803E+01               0
GRID*                629               0-5.616201911E+01-1.904987162E+01+
*       1.6133407803E+01               0
GRID*                630               0-5.989492641E+01-9.510557910E+00+
*       3.7081063443E+00               0
GRID*                631               0-5.803183716E+01-7.669991951E+00+
*       1.3708106344E+01               0
GRID*                632               0-5.803183716E+01-7.669991951E+00+
*       3.7081063443E+00               0
GRID*                633               0-6.235523120E+01-1.251395781E+01+
*       1.3708106344E+01               0
GRID*                634               0-6.397809662E+01-1.428910787E+01+
*       1.0000000000E+01               0
GRID*                635               0-5.525978322E+01-8.818214351E+00+
*       1.3708106344E+01               0
GRID*                636               0-1.954315629E+011.9124858269E+01+
*       2.1422179867E+01               0
GRID*                637               0-1.725482262E+011.8240113222E+01+
*       2.3088846851E+01               0
GRID*                638               0-1.516953455E+012.3179103269E+01+
*       2.1422179867E+01               0
GRID*                639               0-4.244734736E+012.8662570576E+00+
*       5.5737634926E+00               0
GRID*                640               0-4.400043180E+012.1147771055E+01+
*       1.0037890042E+01               0
GRID*                641               0-5.326674798E+011.0129486270E+01+
*       4.7716160567E+00               0
GRID*                642               0-5.872138098E+019.8522934118E+00+
*       1.0000000000E+01               0
GRID*                643               0-5.620442423E+011.4033256644E+01+
*       1.4771616057E+01               0
GRID*                644               0-5.824873329E+011.2784569962E+01+
*       4.7716160567E+00               0
GRID*                645               0-4.167530975E+011.0351529191E+01+
*       1.0000000000E+01               0
GRID*                646               0-4.482854425E+011.1797882295E+01+
*       1.4771616057E+01               0
GRID*                647               0-2.542547330E+011.3740632189E+01+
*       2.7256054082E+00               0
GRID*                648               03.0475324425E+01-2.891841613E+01+
*       1.6344861036E+01               0
GRID*                649               03.4777991470E+01-2.980445594E+01+
*       1.6107822515E+01               0
GRID*                650               02.7251974137E+01-3.810224543E+01+
*       1.6344861036E+01               0
GRID*                651               02.3445198438E+01-3.795703788E+01+
*       1.0000000000E+01               0
GRID*                652               04.5088461819E+01-4.433021022E+01+
*       4.3640313388E+00               0
GRID*                653               04.0350030989E+01-4.086193107E+01+
*       1.4364031339E+01               0
GRID*                654               0-4.106333911E+015.3874233896E+01+
*       1.4788362466E+01               0
GRID*                655               0-3.813991766E+015.6717552591E+01+
*       1.5595762606E+01               0
GRID*                656               0-3.922687435E+015.7218193276E+01+
*       5.5957626065E+00               0
GRID*                657               0-4.215029580E+015.4374874581E+01+
*       4.7883624658E+00               0
GRID*                658               0-4.285710700E+015.8430688450E+01+
*       1.0000000000E+01               0
GRID*                659               0-3.448613465E+015.4646286068E+01+
*       1.5595762606E+01               0
GRID*                660               0-3.740955610E+015.1802967374E+01+
*       1.4788362466E+01               0
GRID*                661               0-4.769040489E+014.8937224403E+01+
*       4.7883624658E+00               0
GRID*                662               0-3.806405081E+015.9266453771E+01+
*       3.4147677832E+00               0
GRID*                663               0-9.504397237E+00-4.290898892E+01+
*       1.0000000000E+01               0
GRID*                664               0-3.911354252E+00-3.901077759E+01+
*       1.0000000000E+01               0
GRID*                665               0-1.378864004E+01-3.675644858E+01+
*       1.0000000000E+01               0
GRID*                666               0-1.687278663E+01-3.990684659E+01+
*       1.0000000000E+01               0
GRID*                667               0-1.258854382E+01-4.605938694E+01+
*       1.0000000000E+01               0
GRID*                668               0-2.019677956E+01-2.405469546E+01+
*       7.3252636831E+00               0
GRID*                669               0-2.087869818E+01-3.349936901E+01+
*       1.0000000000E+01               0
GRID*                670               0-2.278535886E+01-2.294802409E+01+
*       1.7325263683E+01               0
GRID*                671               0-2.830493543E+01-2.660878436E+01+
*       1.0000000000E+01               0
GRID*                672               0-2.323734928E+01-1.525117496E+01+
*       3.9919304292E+00               0
GRID*                673               0-1.968555001E+01-8.499014206E+00+
*       -1.666711524E+00               0
GRID*                674               02.4585312905E+00-1.997759586E+01+
*       1.3294682895E+01               0
GRID*                675               02.4586526128E+00-1.997753877E+01+
*       6.6280286492E+00               0
GRID*                676               0-5.041503477E+00-1.997725967E+01+
*       6.6280059515E+00               0
GRID*                677               06.2095897945E+01-5.352349110E-01+
*       1.5829279090E+01               0
GRID*                678               06.1704460561E+012.4388543850E+00+
*       5.8292790900E+00               0
GRID*                679               06.1704460561E+012.4388543850E+00+
*       1.5829279090E+01               0
GRID*                680               06.3462054508E+01-3.307424924E+00+
*       1.0388365429E+01               0
GRID*                681               06.3744961385E+016.0696917659E-01+
*       1.5829279090E+01               0
GRID*                682               06.6641351684E+01-6.123173011E-01+
*       1.5829279090E+01               0
GRID*                683               06.2458213293E+01-5.745659899E-02+
*       2.1925114333E+00               0
GRID*                684               06.2460593674E+017.7718450467E+00+
*       9.7122471655E+00               0
GRID*                685               07.8567092610E+01-1.225132579E+00+
*       1.0000000000E+01               0
GRID*                686               07.5387795434E+01-3.920240202E+00+
*       4.5590863388E+00               0
GRID*                687               06.8982538307E+01-9.885769063E-01+
*       1.0000000000E+01               0
GRID*                688               06.7230204575E+017.6415522301E+00+
*       2.1925114333E+00               0
GRID*                689               06.5580505725E+015.7697410871E+00+
*       1.2192511433E+01               0
GRID*                690               06.2822909023E+018.2496233587E+00+
*       6.0754795089E+00               0
GRID*                691               06.4010833498E+011.7034088681E+00+
*       8.0217905233E+00               0
GRID*                692               06.2066775910E+012.9166326970E+00+
*       2.1925114333E+00               0
GRID*                693               05.6227417224E+011.4551811835E+01+
*       1.3882968076E+01               0
GRID*                694               06.9860722762E+015.3258260609E+00+
*       1.0000000000E+01               0
GRID*                695               0-3.676980782E+014.5255963789E+01+
*       1.5193067860E+01               0
GRID*                696               0-5.313418215E+014.6296158467E+01+
*       1.0000000000E+01               0
GRID*                697               0-4.776030981E+014.4320229409E+01+
*       5.1930678603E+00               0
GRID*                698               0-3.697709412E+015.8765813086E+01+
*       1.3414767783E+01               0
GRID*                699               0-4.839721609E+015.2993038272E+01+
*       1.0000000000E+01               0
GRID*                700               07.9227100036E+01-6.803025252E+00+
*       1.0000000000E+01               0
GRID*                701               06.1909434304E+01-5.068290391E+00+
*       1.4559086339E+01               0
GRID*                702               06.7003667033E+01-1.345389891E-01+
*       1.2192511433E+01               0
GRID*                703               06.3354120937E+014.4184628577E+00+
*       2.1925114333E+00               0
GRID*                704               06.2095897945E+01-5.352349110E-01+
*       5.8292790900E+00               0
GRID*                705               0-7.733715194E+01-1.906493370E+01+
*       1.0000000000E+01               0
GRID*                706               02.3313129997E+001.9346052892E+01+
*       2.3333344884E+01               0
GRID*                707               07.3577491834E+001.8910552032E+01+
*       2.3333344884E+01               0
GRID*                708               0-5.934807700E+00-3.293574730E+01+
*       1.4961373533E+01               0
GRID*                709               01.1833737281E+011.6585240032E+01+
*       2.3333344884E+01               0
GRID*                710               01.5079589718E+011.2723780305E+01+
*       2.3333344884E+01               0
GRID*                711               0-5.168843090E+001.9345773796E+01+
*       2.3333367582E+01               0
GRID*                712               0-9.979473280E+001.7824272025E+01+
*       2.3333367582E+01               0
GRID*                713               06.8262217316E+01-3.926658421E+01+
*       1.0000000000E+01               0
GRID*                714               06.5108073924E+01-4.697787496E+01+
*       1.0000000000E+01               0
GRID*                715               0-3.152914620E+016.7052559899E+00+
*       6.0589386621E+00               0
GRID*                716               0-3.901099784E+013.9104311943E+00+
*       1.0000000000E+01               0
GRID*                717               01.4535448441E+011.3024104335E+01+
*       8.3981779048E+00               0
GRID*                718               01.5483448355E+012.2691588683E+01+
*       1.1666690638E+01               0
GRID*                719               01.9930749493E+012.3831847575E+01+
*       6.7314872664E+00               0
GRID*                720               01.2894817831E+012.3798297141E+01+
*       1.6666906384E+00               0
GRID*                721               02.0878749407E+013.3499331922E+01+
*       1.0000000000E+01               0
GRID*                722               0-2.095359715E+016.3036353297E+00+
*       -1.666711524E+00               0
GRID*                723               0-1.720364039E+011.2798288824E+01+
*       -1.666666587E+00               0
GRID*                724               0-1.882963085E+01-6.229045928E+00+
*       2.3333378271E+01               0
GRID*                725               0-2.035085179E+01-1.418516548E+00+
*       2.3333378271E+01               0
GRID*                726               0-1.384086300E+011.4578069339E+01+
*       2.3333367582E+01               0
GRID*                727               0-4.734145939E+017.5349108263E+00+
*       1.0000000000E+01               0
GRID*                728               0-5.049469389E+018.9812639300E+00+
*       1.4771616057E+01               0
GRID*                729               0-4.240694603E+01-1.042295928E+01+
*       5.5737634926E+00               0
GRID*                730               0-4.444790706E+01-6.659102481E+00+
*       5.5737634926E+00               0
GRID*                731               0-9.576257473E+002.5251436262E+01+
*       2.1422179867E+01               0
GRID*                732               01.4007346197E+01-4.278880369E+01+
*       1.0000000000E+01               0
GRID*                733               01.3567559240E+01-3.632085877E+01+
*       1.0000000000E+01               0
GRID*                734               02.3611243808E+01-5.496999976E+01+
*       5.6358320509E+00               0
GRID*                735               01.0788615216E+014.2589897734E+01+
*       1.5238994741E+01               0
GRID*                736               01.7879645312E+013.9332528282E+01+
*       1.5238994741E+01               0
GRID*                737               01.4134853559E+014.5712941638E+01+
*       1.5238994741E+01               0
GRID*                738               06.3406324375E+011.4288035092E+00+
*       2.1925114333E+00               0
GRID*                739               0-1.653576031E+01-6.029679386E+01+
*       1.0000000000E+01               0
GRID*                740               0-1.757587140E+01-5.302396872E+01+
*       1.0000000000E+01               0
GRID*                741               0-2.084649324E+01-6.610968908E+01+
*       1.0000000000E+01               0
GRID*                742               0-2.188660433E+01-5.883686393E+01+
*       1.0000000000E+01               0
GRID*                743               0-3.443234231E+01-6.709914269E+01+
*       5.7962214993E+00               0
GRID*                744               0-3.688439388E+01-7.069848702E+01+
*       1.0000000000E+01               0
GRID*                745               0-1.302486584E+01-2.967866773E+01+
*       1.4961373533E+01               0
GRID*                746               0-1.043628654E+01-3.078533910E+01+
*       4.9613735330E+00               0
GRID*                747               0-1.289533582E+01-2.379796095E+01+
*       1.6666324185E+00               0
GRID*                748               0-1.548391512E+01-2.269128959E+01+
*       1.1666632418E+01               0
GRID*                749               0-3.182653667E+01-5.735234548E+01+
*       5.7962214993E+00               0
GRID*                750               0-2.908300545E+01-7.366934421E+01+
*       1.0000000000E+01               0
GRID*                751               0-2.647719982E+01-6.392254700E+01+
*       1.0000000000E+01               0
GRID*                752               0-2.716582326E+01-6.117602847E+01+
*       1.5796221499E+01               0
GRID*                753               0-2.426639098E+01-6.066307516E+01+
*       1.0000000000E+01               0
GRID*                754               05.0396035018E+01-8.434244753E+00+
*       4.3088183541E+00               0
GRID*                755               04.4573261012E+01-6.469611471E+00+
*       1.0000000000E+01               0
GRID*                756               05.0396035018E+01-8.434244753E+00+
*       1.4308818354E+01               0
GRID*                757               03.9010811942E+01-3.911345942E+00+
*       1.0000000000E+01               0
GRID*                758               04.4285710335E+011.8802765387E+00+
*       1.0000000000E+01               0
GRID*                759               05.3168089108E+01-9.582467092E+00+
*       4.3088183541E+00               0
GRID*                760               0-7.910916406E+01-6.739056380E+00+
*       1.0000000000E+01               0
GRID*                761               0-7.037442336E+01-5.070470793E+00+
*       1.0000000000E+01               0
GRID*                762               0-1.957984488E+011.3763891524E+01+
*       2.3088846851E+01               0
GRID*                763               0-3.144247828E+003.4651800822E+01+
*       1.3333333015E+01               0
GRID*                764               02.0568519925E+01-1.983302623E+01+
*       1.9179591604E+01               0
GRID*                765               01.9954072931E+011.0705125315E+00+
*       -3.333333333E+00               0
GRID*                766               01.8820171072E+01-5.301245747E+00+
*       -3.333333333E+00               0
GRID*                767               0-1.763664082E+012.7196016607E+01+
*       1.8088846851E+01               0
GRID*                768               0-1.713485138E+01-7.717775494E+01+
*       1.0000000000E+01               0
GRID*                769               0-5.590007491E-01-3.303966812E+01+
*       4.9613735330E+00               0
GRID*                770               0-1.484611600E+014.9384900414E+01+
*       4.5987194755E+00               0
GRID*                771               05.6116744667E+015.6590807223E+01+
*       1.0000000000E+01               0
GRID*                772               0-3.023387143E+015.6590749428E+01+
*       3.4147677832E+00               0
GRID*                773               0-2.244420182E+012.4476514302E+01+
*       1.6058938662E+01               0
GRID*                774               0-4.837732192E+01-8.686567434E+00+
*       9.2818698369E+00               0
GRID*                775               0-4.733383380E+01-5.816876097E+00+
*       5.5737634926E+00               0
GRID*                776               0-4.733383380E+01-5.816876097E+00+
*       1.5573763493E+01               0
GRID*                777               0-6.431658311E+014.7681664603E+01+
*       1.0000000000E+01               0
GRID*                778               0-6.846331957E+013.9646561298E+01+
*       1.0000000000E+01               0
GRID*                779               06.4271484837E+014.7179775574E+01+
*       1.0000000000E+01               0
GRID*                780               06.7450661880E+013.8833763312E+01+
*       1.0000000000E+01               0
GRID*                781               07.4384981401E+012.4833552473E+01+
*       1.0000000000E+01               0
GRID*                782               0-6.944802301E+01-3.929355447E+01+
*       1.0000000000E+01               0
GRID*                783               0-6.379952632E+01-3.021457178E+01+
*       1.0000000000E+01               0
GRID*                784               0-7.462088306E+01-2.796620459E+01+
*       1.0000000000E+01               0
GRID*                785               05.9805672755E+01-3.729789820E+01+
*       1.0000000000E+01               0
GRID*                786               0-6.753322470E+019.0312026698E-01+
*       1.4692053271E+01               0
GRID*                787               0-7.876522830E+011.6698251610E+00+
*       1.0000000000E+01               0
GRID*                788               0-7.626796540E+01-7.654653199E-01+
*       4.6920532714E+00               0
GRID*                789               0-6.788908148E+017.2985505849E+00+
*       1.0000000000E+01               0
GRID*                790               0-4.736011936E+01-6.396599603E+01+
*       1.0000000000E+01               0
GRID*                791               07.7454890341E+01-1.912887553E+01+
*       1.0000000000E+01               0
GRID*                792               07.4869774723E+01-2.690060479E+01+
*       1.0000000000E+01               0
GRID*                793               0-5.062158277E+016.2530214546E+01+
*       1.0000000000E+01               0
GRID*                794               0-5.616169186E+015.7092564367E+01+
*       1.0000000000E+01               0
GRID*                795               0-6.239261446E+013.0922305613E+01+
*       1.0000000000E+01               0
GRID*                796               0-5.824587799E+013.8957408918E+01+
*       1.0000000000E+01               0
GRID*                797               06.9625363240E+01-1.336473795E+01+
*       1.0000000000E+01               0
GRID*                798               0-2.682511489E+00-1.894925185E+01+
*       -3.333367582E+00               0
GRID*                799               04.8176446015E+00-1.894953094E+01+
*       -3.333344884E+00               0
GRID*                800               05.1641661210E+015.9921146269E+01+
*       1.0000000000E+01               0
GRID*                801               04.6744887582E+016.3129629641E+01+
*       1.0000000000E+01               0
GRID*                802               04.9856864309E+014.7970601046E+01+
*       1.0000000000E+01               0
GRID*                803               06.3053083802E+012.7688342503E+01+
*       1.0000000000E+01               0
GRID*                804               07.7021420457E+011.8876808915E+01+
*       1.0000000000E+01               0
GRID*                805               05.2507023411E+013.9493747312E+01+
*       1.0000000000E+01               0
GRID*                806               05.5686200454E+013.1147735050E+01+
*       1.0000000000E+01               0
GRID*                807               06.9696753591E+01-3.822787752E+01+
*       1.0000000000E+01               0
GRID*                808               07.8793630152E+016.5509586400E+00+
*       1.0000000000E+01               0
GRID*                809               05.0460127986E+012.8113525459E+01+
*       1.0000000000E+01               0
GRID*                810               05.7827011334E+012.4654132912E+01+
*       1.0000000000E+01               0
GRID*                811               0-2.961572783E+01-5.409287364E+01+
*       1.5796221499E+01               0
GRID*                812               0-8.584201929E-014.9444554561E+01+
*       1.0000000000E+01               0
GRID*                813               0-7.477264968E+005.1650187614E+01+
*       1.0000000000E+01               0
GRID*                814               0-1.701689502E+014.0441268023E+01+
*       4.5987194755E+00               0
GRID*                815               0-7.699286694E+011.3995652265E+01+
*       1.0000000000E+01               0
GRID*                816               0-7.280715176E+011.9204478784E+01+
*       1.0000000000E+01               0
GRID*                817               0-7.363650054E+012.8319357975E+01+
*       1.0000000000E+01               0
GRID*                818               05.6953333755E+01-5.638890661E+01+
*       1.0000000000E+01               0
GRID*                819               0-1.507967409E+01-1.272369942E+01+
*       2.3333333333E+01               0
GRID*                820               09.9789552909E+00-1.782460821E+01+
*       2.3333309362E+01               0
GRID*                821               0-1.183382165E+01-1.658515915E+01+
*       2.3333333333E+01               0
GRID*                822               0-7.357833550E+00-1.891047115E+01+
*       2.3333333333E+01               0
GRID*                823               05.1683251013E+00-1.934610999E+01+
*       2.3333309362E+01               0
GRID*                824               01.6129207263E+01-1.546242090E+01+
*       2.1666642377E+01               0
GRID*                825               01.6313080167E+01-1.330612299E+01+
*       1.4179567950E+01               0
GRID*                826               01.1754956537E+01-1.951745714E+01+
*       2.1666642377E+01               0
GRID*                827               01.8829710007E+016.2285604477E+00+
*       2.3333333333E+01               0
GRID*                828               0-4.818082658E+001.8949402357E+01+
*       -3.333333333E+00               0
GRID*                829               0-5.018417215E+002.1297908531E+01+
*       -1.666666587E+00               0
GRID*                830               09.0513099376E+001.7815325553E+01+
*       -3.333309362E+00               0
GRID*                831               01.4000456187E+011.3648817453E+01+
*       -3.333309362E+00               0
GRID*                832               01.7750697798E+017.1535405023E+00+
*       -3.333333333E+00               0
GRID*                833               01.5070050783E+01-1.179646560E+01+
*       -3.333344884E+00               0
GRID*                834               01.0901337975E+01-1.674737325E+01+
*       -3.333344884E+00               0
GRID*                835               01.5935428621E+011.4994709062E+01+
*       -1.666642615E+00               0
GRID*                836               03.2815758963E+015.6274167848E+01+
*       1.0000000000E+01               0
GRID*                837               03.6924927708E+014.8211328900E+01+
*       1.3367924318E+01               0
GRID*                838               03.7998841192E+015.2610664138E+01+
*       1.3367924318E+01               0
GRID*                839               01.4222496975E+01-2.353410327E+01+
*       1.8333309362E+01               0
GRID*                840               01.4162193921E+01-2.306657364E+01+
*       8.3333093616E+00               0
GRID*                841               0-1.548360282E+01-2.269148780E+01+
*       1.8333333333E+01               0
GRID*                842               0-1.995400932E+01-1.069797406E+00+
*       -3.333378271E+00               0
GRID*                843               0-1.775118105E+01-7.152252147E+00+
*       -3.333378271E+00               0
GRID*                844               0-1.593590554E+01-1.499444045E+01+
*       -1.666700835E+00               0
GRID*                845               0-1.757667153E+012.6728281337E+01+
*       8.0888468512E+00               0
GRID*                846               01.3378582334E+002.1589671474E+01+
*       2.1666677899E+01               0
GRID*                847               01.3377369111E+002.1589728567E+01+
*       1.5000023654E+01               0
GRID*                848               07.2973603765E+002.1363837491E+01+
*       2.1666677899E+01               0
GRID*                849               07.2972390542E+002.1363894585E+01+
*       1.5000023654E+01               0
GRID*                850               02.0162006341E+016.2385103031E+01+
*       5.8122702919E+00               0
GRID*                851               02.8304986658E+012.6608747264E+01+
*       1.0000000000E+01               0
GRID*                852               01.3787719311E+013.6756701375E+01+
*       1.0000000000E+01               0
GRID*                853               08.4922939129E+004.2300591552E+01+
*       1.0000000000E+01               0
GRID*                854               03.9104335198E+003.9011030391E+01+
*       1.0000000000E+01               0
GRID*                855               0-4.839293765E+00-2.835079684E+01+
*       1.8294706548E+01               0
GRID*                856               02.8344805261E+017.3521469116E+01+
*       1.0000000000E+01               0
GRID*                857               01.9611153070E+016.6672135218E+01+
*       1.0000000000E+01               0
GRID*                858               01.6396601119E+017.7029699401E+01+
*       1.0000000000E+01               0
GRID*                859               09.3928213095E+006.8787310121E+01+
*       1.0000000000E+01               0
GRID*                860               0-7.003167257E+007.8367143002E+01+
*       1.0000000000E+01               0
GRID*                861               0-1.062021131E+016.7223651348E+01+
*       1.0000000000E+01               0
GRID*                862               0-1.620719514E+017.7681912880E+01+
*       1.0000000000E+01               0
GRID*                863               05.1878570235E+01-1.164387798E+01+
*       4.3088183541E+00               0
GRID*                864               0-5.466192742E+013.2939277025E+01+
*       1.0000000000E+01               0
GRID*                865               0-6.248840602E+012.2870942977E+01+
*       1.0000000000E+01               0
GRID*                866               0-5.804412896E+012.6399508256E+01+
*       1.0000000000E+01               0
GRID*                867               0-5.813992052E+011.8348145620E+01+
*       1.0000000000E+01               0
GRID*                868               0-5.188498685E+01-5.972457326E+01+
*       1.0000000000E+01               0
GRID*                869               0-6.510686080E+01-4.637621158E+01+
*       1.0000000000E+01               0
GRID*                870               03.2016784514E+01-1.145441833E+01+
*       1.5846258588E+01               0
GRID*                871               0-1.667144841E+005.5103507776E+01+
*       1.0000000000E+01               0
GRID*                872               0-5.095008698E+006.2131861740E+01+
*       1.0000000000E+01               0
GRID*                873               05.0321299424E+01-6.398846579E+01+
*       1.0000000000E+01               0
GRID*                874               03.8078943874E+01-7.031205662E+01+
*       1.0000000000E+01               0
GRID*                875               05.2766357884E+01-6.012860831E+01+
*       1.0000000000E+01               0
GRID*                876               02.2368561511E+01-3.547714109E+00+
*       2.1666666349E+01               0
GRID*                877               01.3275140228E+014.8050768329E+01+
*       5.2389947407E+00               0
GRID*                878               0-1.221407780E+01-6.730448016E+01+
*       1.0000000000E+01               0
GRID*                879               04.4620217962E+01-4.723741307E+01+
*       1.4364031339E+01               0
GRID*                880               04.1031487912E+01-4.461334841E+01+
*       1.4364031339E+01               0
GRID*                881               09.1212084328E+00-3.005361560E+01+
*       4.9613735330E+00               0
GRID*                882               0-2.260857730E-02-2.828507876E+01+
*       1.6280402791E+00               0
GRID*                883               0-8.432689131E+002.4959754202E+01+
*       4.7555135974E+00               0
GRID*                884               01.5693957697E+004.4421251249E+01+
*       1.0000000000E+01               0
GRID*                885               02.8895658532E+016.9234436929E+01+
*       5.8122702919E+00               0
GRID*                886               06.1803881113E+011.0486899036E+01+
*       3.8829680755E+00               0
GRID*                887               0-2.695356948E+014.6431430239E+00+
*       1.1666621729E+01               0
GRID*                888               04.2775740732E+013.2037353130E+01+
*       3.4347762680E+00               0
GRID*                889               04.6298426753E+012.8586352263E+01+
*       3.4347762680E+00               0
GRID*                890               0-4.014566653E+016.9262408706E+01+
*       1.0000000000E+01               0
GRID*                891               0-3.426565366E+016.9597533342E+01+
*       1.3414767783E+01               0
GRID*                892               05.0184982331E+00-2.129797970E+01+
*       -1.666678138E+00               0
GRID*                893               0-7.594278730E+00-2.693603209E+01+
*       1.6280402791E+00               0
GRID*                894               01.0052808249E+011.9948985141E+01+
*       -1.666642615E+00               0
GRID*                895               0-1.091451237E+011.6651925407E+01+
*       1.6422214433E+01               0
GRID*                896               0-1.466415684E+011.0156499165E+01+
*       1.6422225122E+01               0
GRID*                897               0-6.162297857E+002.1589392378E+01+
*       2.1666700597E+01               0
GRID*                898               0-1.913557769E+01-1.684169544E+01+
*       2.2325263683E+01               0
GRID*                899               0-2.238143013E+01-1.298023572E+01+
*       2.2325263683E+01               0
GRID*                900               05.4482077243E+007.8367042566E+01+
*       1.0000000000E+01               0
GRID*                901               01.9879448873E+01-8.967143947E+00+
*       2.1666666349E+01               0
GRID*                902               01.9915608891E+01-3.606906879E+00+
*       2.3333333333E+01               0
GRID*                903               02.6816398096E+001.8949540333E+01+
*       -3.333309362E+00               0
GRID*                904               01.0550505184E+01-7.715737236E+01+
*       1.0000000000E+01               0
GRID*                905               02.1045310045E+01-5.713747103E+01+
*       1.5635832051E+01               0
GRID*                906               02.6703080935E+01-5.996429841E+01+
*       1.5444758715E+01               0
GRID*                907               0-3.776396867E+01-4.615233620E+01+
*       1.3954549051E+01               0
GRID*                908               0-6.731381186E+01-2.079395169E+00+
*       4.6920532714E+00               0
GRID*                909               0-1.271780951E+01-1.887407237E+01+
*       2.1666666349E+01               0
GRID*                910               0-2.001956555E+01-1.913060866E+01+
*       2.0658596699E+01               0
GRID*                911               0-5.098847797E+012.5850560694E+01+
*       1.0000000000E+01               0
GRID*                912               0-5.268528751E+011.8625338478E+01+
*       4.7716160567E+00               0
GRID*                913               0-4.905298169E+012.1535671718E+01+
*       1.4771616057E+01               0
GRID*                914               0-5.379379725E+012.1676160575E+01+
*       1.0000000000E+01               0
GRID*                915               0-5.185830096E+011.7361271599E+01+
*       1.4771616057E+01               0
GRID*                916               02.8532036762E+01-7.404833811E+01+
*       1.0000000000E+01               0
GRID*                917               0-1.534060931E+01-4.823106887E+01+
*       4.8280666271E+00               0
GRID*                918               0-1.494917235E+01-5.120515846E+01+
*       1.4828066627E+01               0
GRID*                919               0-1.909752528E+01-4.459348575E+01+
*       1.0000000000E+01               0
GRID*                920               0-1.192821567E+01-5.628190447E+01+
*       1.0000000000E+01               0
GRID*                921               0-5.445510071E+01-2.901986439E+01+
*       1.6133407803E+01               0
GRID*                922               06.7330379632E+003.2397471807E+01+
*       1.3333333015E+01               0
GRID*                923               0-3.213212562E+01-3.041561343E+01+
*       1.4759493031E+01               0
GRID*                924               0-2.866595425E+01-3.253647452E+01+
*       1.0000000000E+01               0
GRID*                925               0-2.407425825E+01-1.475627207E+01+
*       2.0658596699E+01               0
GRID*                926               0-1.175557493E+011.9517059385E+01+
*       2.1666700597E+01               0
GRID*                927               01.2692540106E+013.2171637824E+01+
*       1.3333333015E+01               0
GRID*                928               0-2.816753516E+011.9171963911E+01+
*       1.6058938662E+01               0
GRID*                929               04.8852995599E+01-5.059179622E+01+
*       6.9632234687E+00               0
GRID*                930               0-2.961572783E+01-5.409287364E+01+
*       5.7962214993E+00               0
GRID*                931               0-2.653180066E+015.5793015269E+01+
*       1.0000000000E+01               0
GRID*                932               0-3.523608109E+01-4.985218522E+01+
*       3.9545490510E+00               0
GRID*                933               01.8312194961E+01-4.540136117E+01+
*       1.0000000000E+01               0
GRID*                934               04.4814057897E+01-1.846769332E+01+
*       1.4308818354E+01               0
GRID*                935               05.1067600071E+01-4.878248684E+01+
*       1.0000000000E+01               0
GRID*                936               03.2915672378E+01-7.088012685E+01+
*       5.4447587154E+00               0
GRID*                937               03.2915672378E+01-7.088012685E+01+
*       1.5444758715E+01               0
GRID*                938               01.7054930076E+01-5.481782176E+01+
*       5.6358320509E+00               0
GRID*                939               01.2931196841E+01-5.697156720E+01+
*       4.5109880731E+00               0
GRID*                940               02.1324961074E+01-4.007806794E+01+
*       1.0000000000E+01               0
GRID*                941               0-4.105162819E+012.3335889961E+01+
*       1.5266273985E+01               0
GRID*                942               0-4.780098762E+011.6498568408E+01+
*       1.4771616057E+01               0
GRID*                943               0-3.637837068E+014.2281874224E+01+
*       1.5193067860E+01               0
GRID*                944               0-3.210716700E+013.8967975611E+01+
*       1.5859547677E+01               0
GRID*                945               0-2.815544861E+017.4173840660E+01+
*       1.0000000000E+01               0
GRID*                946               03.0175320396E+002.6052626156E+01+
*       1.6666906384E+00               0
GRID*                947               0-3.414477605E+001.6652261596E+01+
*       9.7555374897E+00               0
GRID*                948               0-5.078010662E+011.3142939068E+01+
*       1.4771616057E+01               0
GRID*                949               0-5.326674798E+011.0129486270E+01+
*       1.4771616057E+01               0
GRID*                950               0-5.153790729E+011.3638275933E+01+
*       4.7716160567E+00               0
GRID*                951               04.8520720632E+014.5800565163E+01+
*       3.3679243185E+00               0
GRID*                952               0-5.049469389E+018.9812639300E+00+
*       4.7716160567E+00               0
GRID*                953               0-3.057493540E+01-3.444952752E+01+
*       1.3802684365E+01               0
GRID*                954               05.7964685560E+01-2.593387914E+01+
*       1.5778788330E+01               0
GRID*                955               0-1.797425787E+014.9511709015E+01+
*       1.4598719475E+01               0
GRID*                956               0-1.090270673E+011.6746394904E+01+
*       -3.333333333E+00               0
GRID*                957               09.5137975973E+00-5.231669665E+01+
*       4.9569005436E+00               0
GRID*                958               02.9938534771E+01-6.299149886E+01+
*       1.5444758715E+01               0
GRID*                959               01.5431198969E+01-4.892312748E+01+
*       1.0000000000E+01               0
GRID*                960               04.2405613490E+01-4.904672246E+01+
*       1.1327254808E+01               0
GRID*                961               04.8003554042E+01-3.508821030E+01+
*       4.2120269705E+00               0
GRID*                962               04.8240760773E+01-3.116785187E+01+
*       1.4212026971E+01               0
GRID*                963               0-3.298314894E+01-3.909461569E+01+
*       3.8026843648E+00               0
GRID*                964               0-2.587549102E+01-3.703778582E+01+
*       1.0000000000E+01               0
GRID*                965               06.5218190377E+015.2919627751E+00+
*       1.5829279090E+01               0
GRID*                966               02.3693920306E+015.6151136936E+01+
*       1.5812270292E+01               0
GRID*                967               0-1.899440770E+015.2873026376E+01+
*       4.5987194755E+00               0
GRID*                968               02.0350930948E+011.4180310681E+00+
*       2.3333333333E+01               0
GRID*                969               04.3672142059E+014.5796341752E+01+
*       3.3679243185E+00               0
GRID*                970               06.1619220379E+00-2.158970909E+01+
*       2.1666642377E+01               0
GRID*                971               01.7775032190E+014.4830196955E+01+
*       1.5238994741E+01               0
GRID*                972               02.0774136285E+013.8997000596E+01+
*       1.0000000000E+01               0
GRID*                973               04.4045637175E+014.9130904208E+01+
*       3.3679243185E+00               0
GRID*                974               03.9148863547E+015.2339387581E+01+
*       3.3679243185E+00               0
GRID*                975               04.0478121815E+014.7476097964E+01+
*       3.3679243185E+00               0
GRID*                976               01.2733961310E-01-2.633315194E+01+
*       1.9961373533E+01               0
GRID*                977               02.4813052526E+002.1298046508E+01+
*       -1.666642615E+00               0
GRID*                978               03.4453104611E+01-3.976405421E+01+
*       6.1078225145E+00               0
GRID*                979               01.8823448985E+01-4.960024955E+01+
*       1.0000000000E+01               0
GRID*                980               02.9917295906E+015.7049937188E+01+
*       1.0000000000E+01               0
GRID*                981               02.3693920306E+015.6151136936E+01+
*       5.8122702919E+00               0
GRID*                982               01.7203566965E+01-1.279834600E+01+
*       -1.666678138E+00               0
GRID*                983               0-2.051485754E+01-3.929267953E+01+
*       1.0000000000E+01               0
GRID*                984               0-7.298030745E+00-2.136361690E+01+
*       2.1666666349E+01               0
GRID*                985               02.7366140778E+01-5.542938940E+00+
*       2.5129253685E+00               0
GRID*                986               02.6017009031E+01-1.311397217E+01+
*       2.5129253346E+00               0
GRID*                987               02.0063321777E+01-6.810846035E+00+
*       7.5129252551E+00               0
GRID*                988               02.0953687253E+01-6.303126139E+00+
*       -1.666666587E+00               0
GRID*                989               0-1.616588527E+011.0101847641E+01+
*       2.3333367582E+01               0
GRID*                990               0-2.331397367E+00-1.934597201E+01+
*       2.3333333333E+01               0
GRID*                991               0-5.041191178E+00-1.997745788E+01+
*       1.3294706866E+01               0
GRID*                992               04.5381780852E+015.1300940091E+01+
*       1.0000000000E+01               0
GRID*                993               0-5.712769031E+01-1.022820717E+01+
*       3.7081063443E+00               0
GRID*                994               0-3.298314894E+01-3.909461569E+01+
*       1.3802684365E+01               0
GRID*                995               0-2.375974659E+015.4644792729E+01+
*       1.0000000000E+01               0
GRID*                996               03.9936468430E+015.7193743156E+01+
*       1.0000000000E+01               0
GRID*                997               04.1242719901E+014.4506528468E+01+
*       3.3679243185E+00               0
GRID*                998               0-3.238778178E+01-5.294465102E+01+
*       5.7962214993E+00               0
GRID*                999               03.4828561044E+01-4.460648763E+01+
*       5.0002061721E+00               0
GRID*               2622               0-4.945672226E+01-2.296100378E+00+
*       0.0000000000E+00               0
GRID*               2623               0-4.945672226E+01-2.296100378E+00+
*       2.0000000000E+01               0
GRID*               2621               0-2.195672226E+01-4.992749786E+01+
*       2.0000000000E+01               0
GRID*               2614               03.3295555115E+01-4.918431091E+01+
*       2.0000000000E+01               0
GRID*               2627               03.4076774597E+012.0946916580E+01+
*       2.0000000000E+01               0
GRID*               2616               03.3295555115E+014.6078483582E+01+
*       2.0000000000E+01               0
GRID*               2625               0-2.195672226E+014.5335296631E+01+
*       2.0000000000E+01               0
GRID*               2619               06.0543277740E+01-2.296100378E+00+
*       2.0000000000E+01               0
GRID*               2626               02.6044803619E+011.6009681702E+01+
*       2.6666666031E+01               0
GRID*               2629               01.6999900818E+01-2.437063408E+01+
*       -6.666666508E+00               0
GRID*               2631               01.4302916527E+01-2.050430679E+01+
*       -1.000000000E+01               0
GRID*               2630               02.0824871063E+01-3.314259338E+01+
*       0.0000000000E+00               0
GRID*               2628               02.2659420013E+011.2457120895E+01+
*       3.0000000000E+01               0
GRID*               2620               0-2.195672226E+01-4.992749786E+01+
*       0.0000000000E+00               0
GRID*               2624               0-2.195672226E+014.5335296631E+01+
*       0.0000000000E+00               0
GRID*               2615               03.3295555115E+01-4.918431091E+01+
*       0.0000000000E+00               0
GRID*               2617               03.3295555115E+014.6078483582E+01+
*       0.0000000000E+00               0
GRID*               2618               06.0543277740E+01-2.296100378E+00+
*       0.0000000000E+00               0
GRID*               2300               08.7500000000E+010.0000000000E+00+
*       1.0000000000E+01               0
GRID*               2301               03.3295555115E+01-4.918431091E+01+
*       1.0000000000E+01               0
GRID*               2302               03.3295555115E+014.6078483582E+01+
*       1.0000000000E+01               0
GRID*               2303               06.0543277740E+01-2.296100378E+00+
*       1.0000000000E+01               0
GRID*               2304               0-2.195672226E+01-4.992749786E+01+
*       1.0000000000E+01               0
GRID*               2305               0-4.945672226E+01-2.296100378E+00+
*       1.0000000000E+01               0
GRID*               2306               0-2.195672226E+014.5335296631E+01+
*       1.0000000000E+01               0
GRID*               2307               03.0060789108E+011.8478299141E+01+
*       2.3333333015E+01               0
GRID*               2308               02.4352111816E+011.4233401299E+01+
*       2.8333333015E+01               0
GRID*               2309               01.5000000000E+010.0000000000E+00+
*       1.6666666667E+01               0
GRID*               2310               01.5000000000E+010.0000000000E+00+
*       3.3333333333E+00               0
GRID*               2311               01.5000000000E+010.0000000000E+00+
*       2.3333333333E+01               0
GRID*               2312               01.5000000000E+010.0000000000E+00+
*       1.0000000000E+01               0
GRID*               2313               01.5000000000E+010.0000000000E+00+
*       -3.333333333E+00               0
GRID*               2314               01.8912385941E+01-2.875661373E+01+
*       -3.333333254E+00               0
GRID*               2315               01.5651408672E+01-2.243747044E+01+
*       -8.333333254E+00               0
$*
$* ELEMENT CARDS
$*
$*  NX mesh: 3d_mesh(1)
CTETRA         1       1    1677       1    1678    1695      49      50+
+           1812    1866      51    1869
CTETRA         2       1       2    1694    1029    1692      52      53+
+             54      55    1867      56
CTETRA         3       1       2       3    1033    1034      57      58+
+             59      60      61    1126
CTETRA         4       1       2       3    1692    1033      57      62+
+             55      59      58      63
CTETRA         5       1       2       4    1694    1695      64      65+
+             52      66      67    1864
CTETRA         6       1       2       4    1029    1694      64      68+
+             54      52      65      53
CTETRA         7       1       5    1051       6    1686      69      70+
+             71      72      73      74
CTETRA         8       1       7    1048    1049    1051      75    1226+
+             76      77    1225    1220
CTETRA         9       1       7    1686    1672    1048      78    1837+
+             79      75      80      81
CTETRA        10       1       7       5    1051    1050      82      69+
+             77      83      84    1216
CTETRA        11       1    1672       7    1048    2208      79      75+
+             81    1778      85      86
CTETRA        12       1       7    1686       5    1673      78      72+
+             82      87    1825      88
CTETRA        13       1    1686    1051       6    1048      73      70+
+             74      80    1225      89
CTETRA        14       1       8    2362    2436    2363      90    1423+
+             91      92    2380    1426
CTETRA        15       1       8    2630    1594    2629      93      94+
+             95      96    2314      97
CTETRA        16       1       8    2362    2437    2436      90    1424+
+             98      91    1423    2441
CTETRA        17       1    2309       9    2438       8      99     100+
+            101     102     103     104
CTETRA        18       1    2511       8    1749    2362     105     106+
+           2068     107      90     108
CTETRA        19       1    2364    2435      10    2434    1428     109+
+            110    1427    2443     111
CTETRA        20       1    1025      11    1063      12     112     113+
+           1285     114     115     116
CTETRA        21       1    2364    2363      10    2435    2384     117+
+            110    1428    1425     109
CTETRA        22       1      13      11    1757      12     118     119+
+            120     121     115     122
CTETRA        23       1    1680      14    1684    2316     123     124+
+           1800    1801     125    1799
CTETRA        24       1    1757      13    1064    1750     120     126+
+            127    2122     128     129
CTETRA        25       1      11      12    1747    1757     115     130+
+            131     119     122    2110
CTETRA        26       1      12    1754      15    1748     132     133+
+            134     135    2104     136
CTETRA        27       1    1061    1062    1025      12    1276    1278+
+           1277     137     138     114
CTETRA        28       1       2       4       1    1030      64     139+
+            140     141     142     143
CTETRA        29       1       2    1029       4    1030      54      68+
+             64     141    1154     142
CTETRA        30       1    1029       4    2205    1694      68     144+
+            145      53      65    1861
CTETRA        31       1      16    1046       4    1690     146     147+
+            148     149     150     151
CTETRA        32       1       4    1028    1027    1046     152    1160+
+            153     147    1199    1198
CTETRA        33       1    2340       1    2557       4     154     155+
+           1531     156     139     157
CTETRA        34       1       4    2205    1694    1690     144    1861+
+             65     151    1865    1863
CTETRA        35       1    2479    1595    2464    2465     158     159+
+           1468    1471     160    2476
CTETRA        36       1       4       1    2557    1695     139     155+
+            157      67      51    1858
CTETRA        37       1    2327      17    2623    2320     161     162+
+           2332    1000     163    1001
CTETRA        38       1      18      19    2567    1713     164     165+
+            166     167     168    1905
CTETRA        39       1    1080      20    1081      19     169     170+
+           1388     171     172     173
CTETRA        40       1    2371      18    2566    2506     174     175+
+            176     177     178    1877
CTETRA        41       1      18    2506      20    1713     178     179+
+            180     167    1878     181
CTETRA        42       1       9    2626    2538    2628     182    1526+
+            183     184    2308    2554
CTETRA        43       1    2374    2424    1593       9    1447     185+
+            186     187     188     189
CTETRA        44       1    2424    2626    2538       9    2454    1526+
+           1524     188     182     183
CTETRA        45       1       9      21    2510    2509     190     191+
+            192     193     194    2514
CTETRA        46       1       9    2457    2456    2310     195    2468+
+            196     197     198     199
CTETRA        47       1    2510       9       8    2360     192     103+
+            200     201     202     203
CTETRA        48       1      22    1596    2462    2504     204     205+
+            206     207     208    1487
CTETRA        49       1    2368      22      17    2369     209     210+
+            211    2375     212     213
CTETRA        50       1      22    2368      17      23     209     211+
+            210     214     215     216
CTETRA        51       1    2208    2207    2239    1048    2214    2182+
+           2181      86     217    1240
CTETRA        52       1      22      17    2504    2503     210     218+
+            207     219     220    2520
CTETRA        53       1      22      17    2503      23     210     220+
+            219     214     216     221
CTETRA        54       1      24    1736    1737    1701     222    2036+
+            223     224    2039    2040
CTETRA        55       1      24    1697    1071    1068     225     226+
+            227     228     229    1328
CTETRA        56       1    1732    2198    1706      25    1974    1933+
+           1976     230     231     232
CTETRA        57       1    2416      26    2601    2415     233     234+
+           2143    2421     235    2142
CTETRA        58       1      26      24    2600    1702     236     237+
+            238     239     240    2008
CTETRA        59       1    2416    2600      26      24    2140     238+
+            233     241     237     236
CTETRA        60       1      24    2417    2600    2599     242    2141+
+            237     243    2138    2606
CTETRA        61       1      26      21    2510    2360     244     191+
+            245     246     247     201
CTETRA        62       1      26      21    1702    1705     244     248+
+            239     249     250    2007
CTETRA        63       1      26      21    2360    1065     244     247+
+            246     251     252    1298
CTETRA        64       1       9      21    2627    2360     190     253+
+            254     202     247    2386
CTETRA        65       1      21    2509      27    1704     194     255+
+            256     257    1949     258
CTETRA        66       1      14      28    1680      23     259     260+
+            123     261     262     263
CTETRA        67       1      28      23    1679    1680     262     264+
+            265     260     263    1804
CTETRA        68       1    1739      29    1699      27     266     267+
+           2060     268     269     270
CTETRA        69       1      29    1067      27    1019     271     272+
+            269     273    1305     274
CTETRA        70       1      27    1067      29    2588     272     271+
+            269     275     276     277
CTETRA        71       1    2588    1067      29    2395     276     271+
+            277    1655    1304     278
CTETRA        72       1      25    1722    1707    2568     279    1934+
+            280     281    1937    1938
CTETRA        73       1      29    1699      27    2588     267     270+
+            269     277    2003     275
CTETRA        74       1      29    2592    2617    2616     282    2598+
+            283     284    1665    2302
CTETRA        75       1    2630      30       8    2363     285     286+
+             93     287     288      92
CTETRA        76       1      31    1055    1743    1755     289     290+
+            291     292     293    2102
CTETRA        77       1      31      15    1756      32     294     295+
+            296     297     298     299
CTETRA        78       1      31    1745      32    1756     300     301+
+            297     296    2095     299
CTETRA        79       1      20      19    1713    1718     172     168+
+            181     302     303    1908
CTETRA        80       1      19      18    1080      20     164     304+
+            171     172     180     169
CTETRA        81       1    2370      20    1081    1080     305     170+
+           1385    1384     169    1388
CTETRA        82       1      18    2370    2371    1080     306    2389+
+            174     304    1384    1378
CTETRA        83       1      20    2369    2505      33     307     308+
+            309     310     311     312
CTETRA        84       1      18      20    2506      33     180     179+
+            178     313     310     314
CTETRA        85       1      20    1081      19    1082     170     173+
+            172     315    1386     316
CTETRA        86       1      34    1078    1731    1728     317     318+
+            319     320     321    1967
CTETRA        87       1      34    1073    1078    1077     322    1355+
+            317     323    1349    1360
CTETRA        88       1    2252      34    1079    1073     324     325+
+           1368    1373     322    1374
CTETRA        89       1      34    2590      35    1671     326     327+
+            328     329    1961     330
CTETRA        90       1      34    1728      35    1077     320     331+
+            328     323     332     333
CTETRA        91       1      34      35    2393    1077     328     334+
+            335     323     333    1354
CTETRA        92       1      22      23    2367    2368     214     336+
+            337     209     215    2378
CTETRA        93       1      22      23    2503    2367     214     221+
+            219     337     336     338
CTETRA        94       1      17    2622    2623    2320     339    2305+
+            162     163    2321    1001
CTETRA        95       1    1069      13    1021    1070     340     341+
+           1312    1319     342    1323
CTETRA        96       1    1680    1683    1684      23    1802    1798+
+           1800     263     343     344
CTETRA        97       1    1596    1590      22    1595    1605     345+
+            204    1604    1602     346
CTETRA        98       1      17    2623    2368    2369     162    1103+
+            211     213    1102    2375
CTETRA        99       1      17      23    2368    1039     216     215+
+            211     347     348    1133
CTETRA       100       1    2630    1749       8      30    2066     106+
+             93     285     349     286
CTETRA       101       1    1023    1057    1022      30    1271    1251+
+           1167     350     351     352
CTETRA       102       1      30    1057    1022    2353     351    1251+
+            352     353    1250    1252
CTETRA       103       1    1749      30    2580      32     349     354+
+           2067     355     356     357
CTETRA       104       1      32      30    2580    2353     356     354+
+            357     358     353    1653
CTETRA       105       1    1057      32      36    2353     359     360+
+            361    1250     358     362
CTETRA       106       1       2       1       4    1695     140     139+
+             64      66      51      67
CTETRA       107       1    1031       1    1030    1034     363     143+
+           1150    1146     364    1149
CTETRA       108       1       4    1027    1028    1030     153    1160+
+            152     142    1159    1158
CTETRA       109       1       1    1681    1678       3     365    1811+
+             50     366     367     368
CTETRA       110       1       1    1035       3    1034     369     370+
+            366     364    1142      61
CTETRA       111       1    1677       1    1681    1678      49     365+
+           1809    1812      50    1811
CTETRA       112       1       2       1       3    1034     140     366+
+             57      60     364      61
CTETRA       113       1    1013    1012      37      38    1228     371+
+            372     373     374     375
CTETRA       114       1    2614      39    1013      38     376     377+
+           1249     378     379     373
CTETRA       115       1    1675    1012    1668      38     380     381+
+           1762     382     374     383
CTETRA       116       1    1761      38      31    1760     384     385+
+            386    2136     387     388
CTETRA       117       1      36      39    1059    2614     389     390+
+            391     392     376    1258
CTETRA       118       1      39    1060    1059    1058     393    1270+
+            390     394    1269    1259
CTETRA       119       1    1012      39      38    1013     395     379+
+            374    1228     377     373
CTETRA       120       1      38    1761      39    1668     384     396+
+            379     383    2134     397
CTETRA       121       1      37      38    2349    1013     375     398+
+            399     372     373    1235
CTETRA       122       1    1060    2237    1012      39    1263    1231+
+           1264     393     400     395
CTETRA       123       1      38      37    1675    1012     375     401+
+            382     374     371     380
CTETRA       124       1      38    1761    1668    1760     384    2134+
+            383     387    2136    1764
CTETRA       125       1      38      37    1669    1675     375     402+
+            403     382     401    1771
CTETRA       126       1      38    1669      37    2577     403     402+
+            375     404    1770     405
CTETRA       127       1      31      36    1745    1760     406     407+
+            300     388     408    2130
CTETRA       128       1    2615      38    1760      36     409     387+
+           2128     410     411     408
CTETRA       129       1    2568      40      41    1722     412     413+
+            414    1937     415     416
CTETRA       130       1    2464    1595    2479    2480     159     158+
+           1468    1469     417    2498
CTETRA       131       1    1076      25    1732    1730     418     230+
+            419     420     421    1977
CTETRA       132       1    1017      41      25    2405     422     423+
+            424    1337     425     426
CTETRA       133       1      41    2568    2404      40     414    1542+
+            427     413     412     428
CTETRA       134       1    1596    2482    1597    2279     429     430+
+           1608    1627    1557    1628
CTETRA       135       1      33    1597    1591    1596     431    1609+
+            432     433    1608    1606
CTETRA       136       1      33    1591    2429    2369     432     434+
+            435     311     436    1437
CTETRA       137       1      33    2429    1591    2533     435     434+
+            432     437    1514     438
CTETRA       138       1      33    2428    2429    2533     439    2449+
+            435     437    1517    1514
CTETRA       139       1      33      42    1597    2460     440     441+
+            431     442     443     444
CTETRA       140       1    1701    1065    1704    1702     445     446+
+           2012    2013     447    2011
CTETRA       141       1    1048    1686    1672    1687      80    1837+
+             81     448    1831    1838
CTETRA       142       1       6       5    2501    1041      71     449+
+            450     451     452     453
CTETRA       143       1       6    1048    1051    1047      89    1225+
+             70     454    1223    1219
CTETRA       144       1    1040    2365    1041       6    1179    1181+
+           1180     455     456     451
CTETRA       145       1    2309    1589    2526    2613    1616     457+
+            458    2311    1617    1584
CTETRA       146       1       6    1689    1687    2620     459    1828+
+            460     461    1827    1829
CTETRA       147       1       6       5    1041    1051      71     452+
+            451      70      69    1218
CTETRA       148       1      43    1076    1075    1729     462    1343+
+            463     464     465     466
CTETRA       149       1    2624    2371    2566    2506     467     176+
+           2576    1880     177    1877
CTETRA       150       1    2402      18    2566    2371     468     175+
+           1546    1376     174     176
CTETRA       151       1    1735    2252      34    1079     469     324+
+            470     471    1368     325
CTETRA       152       1    1075    2372      43    1074    1344     472+
+            463    1346    1345     473
CTETRA       153       1      43    2625    2570    2624     474    1539+
+            475     476    2306    2571
CTETRA       154       1      42    2507      43    2372     477     478+
+            479     480     481     472
CTETRA       155       1    2625    2371    2624      43    1106     467+
+           2306     474     482     476
CTETRA       156       1      43    2624    1725    2507     476    1998+
+            483     478    1997    1999
CTETRA       157       1      19    1087      40    1088     484     485+
+            486     487    1409     488
CTETRA       158       1      20      18    1080    2370     180     304+
+            169     305     306    1384
CTETRA       159       1      19      40    1710    1709     486     489+
+            490     491     492    1914
CTETRA       160       1      19    1082    1088    1718     316    1414+
+            487     303     493     494
CTETRA       161       1    1082      20    1712    1718     315     495+
+            496     493     302    1909
CTETRA       162       1      20      19    1718    1082     172     303+
+            302     315     316     493
CTETRA       163       1      44    2505    1714    1712     497    1887+
+            498     499    1882    1890
CTETRA       164       1      19      40    2567    1710     486     500+
+            165     490     489    1907
CTETRA       165       1    2339       4      16    1028     501     148+
+            502    1157     152     503
CTETRA       166       1       1    1034    1031    1035     364    1146+
+            363     369    1142    1144
CTETRA       167       1      28       3    1692    1679     504      62+
+            505     265     506    1855
CTETRA       168       1       3    1678    1692    1679     368    1856+
+             62     506    1807    1855
CTETRA       169       1       3    1681    1682    2503     367    1789+
+            507     508    1788    1790
CTETRA       170       1       1    1678    1695       2      50    1869+
+             51     140     509      66
CTETRA       171       1       3      23    1038    2367     510     511+
+            512     513     336    1139
CTETRA       172       1       3      23    2367    2503     510     336+
+            513     508     221     338
CTETRA       173       1       3    1679      23    1682     506     264+
+            510     507    1805     514
CTETRA       174       1      27    1704    1066      21     258     515+
+            516     256     257     517
CTETRA       175       1      27    1066    1738    1739     516     518+
+            519     268     520    2055
CTETRA       176       1      27    1066    1739    1019     516     520+
+            268     274    1307     521
CTETRA       177       1    1703    2588    2374      27    1953     522+
+            523     524     275     525
CTETRA       178       1      21    2627      27    2509     253     526+
+            256     194     527     255
CTETRA       179       1      27    1703    1704    2509     524    1956+
+            258     255    1955    1949
CTETRA       180       1    2361    1747    1024    2511     528     529+
+           1173     530    2073     531
CTETRA       181       1      35    2508    1724    1723     532    2002+
+            533     534    2001    1983
CTETRA       182       1      35    1723    2590    2589     534    1958+
+            327     535    1959    2595
CTETRA       183       1      34    1072    1077    2393     536    1347+
+            323     335    1352    1354
CTETRA       184       1      35    1074    1728    1724     537     538+
+            331     533     539    1985
CTETRA       185       1      34    1671      35    1728     329     330+
+            328     320    1964     331
CTETRA       186       1      11      13    2413    1063     118     540+
+            541     113     542    1282
CTETRA       187       1    1754    1061    1758      12     543     544+
+           2112     132     137     545
CTETRA       188       1      11    1063      12      13     113     116+
+            115     118     542     121
CTETRA       189       1      11    2361    1025    1026     546    1175+
+            112     547    1176    1178
CTETRA       190       1      45    1044    1043    2351     548    1190+
+            549     550    1189    1191
CTETRA       191       1    2349    2577      37    2350    1644     405+
+            399    2356    1647     551
CTETRA       192       1      45    1044       5    1042     548     552+
+            553     554    1195     555
CTETRA       193       1      45       7    1676    1054     556     557+
+            558     559     560     561
CTETRA       194       1      45      37    1054    1676     562     563+
+            559     558     564     561
CTETRA       195       1    1048       7    1686    1051      75      78+
+             80    1225      77      73
CTETRA       196       1      45    2350    2578    2351     565    1646+
+            566     550    2355    1649
CTETRA       197       1      45    1042       5    1050     554     555+
+            553     567    1214      84
CTETRA       198       1      45       5       7    1050     553      82+
+            556     567      84      83
CTETRA       199       1      46    1011    1666    1667     568     569+
+            570     571     572    1852
CTETRA       200       1      46    1715    1015    2318     573     574+
+            575     576    1904     577
CTETRA       201       1      46    2330    1011    1667     578    1092+
+            568     571     579     572
CTETRA       202       1      46    2329    2318    1015     580    1004+
+            576     575    1100     577
CTETRA       203       1      46    2317    1717    2318     581    1898+
+            582     576    2324    1899
CTETRA       204       1      46    2330    1667    2317     578     579+
+            571     581    1006    1849
CTETRA       205       1       7    1054    2208    1676     560     583+
+             85     557     561    1781
CTETRA       206       1    1051       7    1686       5      77      78+
+             73      69      82      72
CTETRA       207       1       6       5    1688    2501      71     584+
+            585     450     449    1818
CTETRA       208       1       6    2501    1688    1689     450    1818+
+            585     459    1822    1823
CTETRA       209       1       5    1688    2501    2364     584    1818+
+            449     586     587     588
CTETRA       210       1       5    2364    1044    1688     586    1187+
+            552     584     587     589
CTETRA       211       1    1755    1056    1055    1061     590    1266+
+            293     591    1279    1280
CTETRA       212       1    1024      32    1749      15     592     355+
+            593     594     298     595
CTETRA       213       1    2511    1748    1024    1749    2069     596+
+            531    2068    2070     593
CTETRA       214       1      32    1024    1062      15     592    1275+
+            597     298     594     598
CTETRA       215       1    1023      32    1024    1062     599     592+
+           1169    1274     597    1275
CTETRA       216       1      12    1062    1025    1024     138    1278+
+            114     600    1275    1174
CTETRA       217       1    1755    1061    1758    1754     591     544+
+           2117    2109     543    2112
CTETRA       218       1      37    1669    1676    2577     402    1768+
+            564     405    1770    1769
CTETRA       219       1      15      32    1749    1756     298     355+
+            595     295     299    2093
CTETRA       220       1      31      15      32    1056     294     298+
+            297     601     602     603
CTETRA       221       1      13      47    1752    1751     604     605+
+            606     607     608    2091
CTETRA       222       1      12      15    1024    1748     134     594+
+            600     135     136     596
CTETRA       223       1    2618    2603      13    2413    2609     609+
+            610    2148    2146     540
CTETRA       224       1      13    1020    1021    1063     611    1289+
+            341     542    1288    1283
CTETRA       225       1    1759      13      11    1757     612     118+
+            613    2123     120     119
CTETRA       226       1    1750    1757    1758    1064    2122    2113+
+           2119     129     127     614
CTETRA       227       1    1591    2430    2369      22     615    1438+
+            436     616     617     212
CTETRA       228       1      28    1666    1032    1011     618     619+
+            620     621     569    1114
CTETRA       229       1      14      28    1691    1680     259     622+
+            623     123     260    1846
CTETRA       230       1       3    1033    1034    1038      58    1126+
+             61     512    1124    1127
CTETRA       231       1      28       3      23    1038     504     510+
+            262     624     512     511
CTETRA       232       1      14      23    1039    1037     261     348+
+            625     626     627    1130
CTETRA       233       1      28      23       3    1679     262     510+
+            504     265     264     506
CTETRA       234       1      28    1036    1037    1011     628    1123+
+            629     621    1122    1121
CTETRA       235       1      14    1667    2330    2317     630     579+
+            631     632    1849    1006
CTETRA       236       1      14    2317    2330    2316     632    1006+
+            631     125    2325    1009
CTETRA       237       1    1667      14    1011    1691     630     633+
+            572    1853     623     634
CTETRA       238       1      28    1691    1666    1011     622    1850+
+            618     621     634     569
CTETRA       239       1      14    2331    1037    1039     635    1120+
+            626     625    1128    1130
CTETRA       240       1    1680      23    1684      14     263     344+
+           1800     123     261     124
CTETRA       241       1      42    2428    2534    2427     636    1516+
+            637     638    2450    1519
CTETRA       242       1    2320    2504    1714      17    1794    1886+
+           1888     163     218     639
CTETRA       243       1       5    1051    1050    1042      69    1216+
+             84     555    1215    1214
CTETRA       244       1    2505    1712      44      20    1882     499+
+            497     309     495     640
CTETRA       245       1      44    2319    1015    1715     641     642+
+            643     644    1925     574
CTETRA       246       1    2369    2505    1714      44     308    1887+
+            645     646     497     498
CTETRA       247       1      33    2460    2461    2505     442    2472+
+            647     312    1486    1485
CTETRA       248       1      30    2362      32    1749     648     649+
+            356     349     108     355
CTETRA       249       1      30    2580    2352    2363     354    1650+
+            650     288     651    1184
CTETRA       250       1      30    2580    2353    2352     354    1653+
+            353     650    1650    2359
CTETRA       251       1      32    1062    1057    1056     597    1272+
+            359     603    1273    1268
CTETRA       252       1      31    1756    1744    1745     296    2096+
+            652     300    2095    2097
CTETRA       253       1      36    1057      31      32     361     653+
+            406     360     359     297
CTETRA       254       1      28    1680    1679    1691     260    1804+
+            265     622    1846    1854
CTETRA       255       1      41      40    1086    1721     413     654+
+            655     656     657     658
CTETRA       256       1    1722      40      41    1721     415     413+
+            416    1930     657     656
CTETRA       257       1    2405    2568    2404      41    1543    1542+
+           2409     425     414     427
CTETRA       258       1      41    1722      25    2568     416     279+
+            423     414    1937     281
CTETRA       259       1    1018      41      40    1086     659     413+
+            660    1397     655     654
CTETRA       260       1    1017    2405      25    1076    1337     426+
+            424    1336    1334     418
CTETRA       261       1      40    1708    1721    1709     661    1942+
+            657     492    1912    1943
CTETRA       262       1    1722      41      25    1721     416     423+
+            279    1930     656     662
CTETRA       263       1    1689    2501    2502    2365    1822    2522+
+           1820     663     664     665
CTETRA       264       1    1689    2502    1040    2365    1820     666+
+            667     663     665    1179
CTETRA       265       1      22    2502    2366    2503     668     669+
+            670     219    2521     671
CTETRA       266       1      22    2462    1596    2463     206     205+
+            204     672    2474     673
CTETRA       267       1      18    2566    2506    1713     175    1877+
+            178     167    1879    1878
CTETRA       268       1      10    1589    1594    1595     674    1599+
+            675     676    1601    1600
CTETRA       269       1    2365    2502    1040    2366     665     666+
+           1179    2383     669    1182
CTETRA       270       1    2619    2599    2417      48    2139    2138+
+           2422     677     678     679
CTETRA       271       1      13      48    1070    1069     680     681+
+            342     340     682    1319
CTETRA       272       1      13      47    1751    2618     604     608+
+            607     610     683    2087
CTETRA       273       1      48    2599    2417      24     678    2138+
+            679     684     243     242
CTETRA       274       1      13    1069    2610    1752     340     685+
+            686     606     687    2081
CTETRA       275       1    1068    1697      47      24     229     688+
+            689     228     225     690
CTETRA       276       1      48      47    2599      24     691     692+
+            678     684     690     243
CTETRA       277       1    1702    1065      26      24     447     251+
+            239     240     693     236
CTETRA       278       1    1752    1069    2610    1697     687     685+
+           2081    2078     694    2080
CTETRA       279       1      40    2404    1087      19     428    1401+
+            485     486     695     484
CTETRA       280       1    2404    2567      19      40    1545     165+
+            695     428     500     486
CTETRA       281       1      41    1017    1086    1018     422    1396+
+            655     659    1339    1397
CTETRA       282       1    1088    1708      40      19     696     661+
+            488     487     697     486
CTETRA       283       1    1708      40      19    1709     661     486+
+            697    1912     492     491
CTETRA       284       1      41    1086    1017      25     655    1396+
+            422     423     698     424
CTETRA       285       1      40    1708    1086    1721     661     699+
+            654     657    1942     658
CTETRA       286       1      13    2610    1069    1020     686     685+
+            340     611     700    1311
CTETRA       287       1      13    1021    1020    1069     341    1289+
+            611     340    1312    1311
CTETRA       288       1    1070      13    1021    2619     342     341+
+           1323    1322     701    1284
CTETRA       289       1    1069    1697      47    1068     694     688+
+            702    1316     229     689
CTETRA       290       1      47    1698    1697    1752     703    2032+
+            688     605    2079    2078
CTETRA       291       1    2618      13      48    2619     610     680+
+            704    2303     701     677
CTETRA       292       1    2501    2364    2365    1041     588    2385+
+            664     453    1192    1181
CTETRA       293       1    2244    2203    2202    1666    2171    2220+
+           2172     705    1841    1894
CTETRA       294       1    2501    1689       6    2365    1822     459+
+            450     664     663     456
CTETRA       295       1    2537    2536    1593    2289    2552     706+
+            707    1588    1586    1636
CTETRA       296       1      10    2434    2365    2364     111    1430+
+            708     110    1427    2385
CTETRA       297       1    2538    2289    1593    2628    1587    1636+
+            709    2554    1585     710
CTETRA       298       1    2536    1592    2290    2535     711    1638+
+           1574    2551     712    1573
CTETRA       299       1    1758    2211    2236    1743    2115    2187+
+            713    2114    2116     714
CTETRA       300       1       9    2626    2627    2424     182    2307+
+            254     188    2454    1449
CTETRA       301       1    1591    1596    1590      22    1606    1605+
+           1607     616     204     345
CTETRA       302       1      33    2461    2504    2505     647    1488+
+            715     312    1485    2519
CTETRA       303       1    2538       9    1593    2424     183     189+
+            709    1524     188     185
CTETRA       304       1    2505    2369    1714    2504     308     645+
+           1887    2519     716    1886
CTETRA       305       1       9    2310    1593    1598     197    1634+
+            189     717    1632    1614
CTETRA       306       1       9    1598    2374    2508     717     718+
+            187     719     720     721
CTETRA       307       1    1596    2461    1597    2482     722     723+
+           1608     429    1462     430
CTETRA       308       1    2531    2532    2291    1591    2547    1576+
+           1578     724     725    1640
CTETRA       309       1    2535    1592    2290    2534     712    1638+
+           1573    2550     726    1575
CTETRA       310       1      14    1011    2330    1667     633    1092+
+            631     630     572     579
CTETRA       311       1    2318    1715    1015    2319    1904     574+
+            577    2323    1925     642
CTETRA       312       1    2369      17    2623    2327     213     162+
+           1102    1104     161    2332
CTETRA       313       1    2327    1714      44    2369     727     498+
+            728    1104     645     646
CTETRA       314       1      17    2504    1683    1684     218    1797+
+            729     730    1792    1798
CTETRA       315       1      33    2505    2506    2460     312    2518+
+            314     442    1486    1483
CTETRA       316       1      42    2372    2427    2426     480    1444+
+            638     731    1443    2451
CTETRA       317       1    2364    2579    2501    2630     732    1814+
+            588     733    1813    2523
CTETRA       318       1    1057      32      30    1023     359     356+
+            351    1271     599     350
CTETRA       319       1      45    2577      37    1676     734     405+
+            562     558    1769     564
CTETRA       320       1      35    2373    2374    1014     735    2377+
+            736     737    1113    1112
CTETRA       321       1      19    1080    1087    1081     171    1404+
+            484     173    1388    1405
CTETRA       322       1      47    2599    1698    1753     692    2042+
+            703     738    2084    2082
CTETRA       323       1      19    1718    1708    1709     303    1911+
+            697     491    1910    1912
CTETRA       324       1    1685    1047    2620    1045     739     740+
+           1834     741    1213     742
CTETRA       325       1      16    2206    1046    1690     743     744+
+            146     149    1871     150
CTETRA       326       1    2502    2366      10    1595     669     745+
+            746     747     748     676
CTETRA       327       1    2206    1696      16    1045    1872     749+
+            743     750     751     752
CTETRA       328       1      21    2627    1065    1066     253    1300+
+            252     517    1301    1302
CTETRA       329       1      24    2416    2417    1068     241    2423+
+            242     228    1324    1321
CTETRA       330       1    1690    1696      16    2206    1874     749+
+            149    1871    1872     743
CTETRA       331       1    2620    1045    2555    1685     742     753+
+           2565    1834     741    1835
CTETRA       332       1      21    1705    2510    2509     250    1945+
+            191     194    1948    2514
CTETRA       333       1      11    2602    2361    2414     754     755+
+            546     756    2144    1171
CTETRA       334       1    2361    2415    2602    2510    1170    2145+
+            755     757     758    1947
CTETRA       335       1      11      13    1759    2603     118     612+
+            613     759     609    2125
CTETRA       336       1      28    1666    1691    1692     618    1850+
+            622     505    1842    1851
CTETRA       337       1    1691      14    1011      28     623     633+
+            634     622     259     621
CTETRA       338       1    2245    1666    1016    1011     760     761+
+           1096    1094     569    1091
CTETRA       339       1      42    2533    2534    2428     762    2549+
+            637     636    1517    1516
CTETRA       340       1      42    2426    2507    2372     731     763+
+            477     480    1443     481
CTETRA       341       1       8    2363    2436    2435      92    1426+
+             91     764    1425    2442
CTETRA       342       1    2487    2456    2310    2488    1452     199+
+            765    2490    1453     766
CTETRA       343       1    2457    2456    2310    2487    2468     199+
+            198    1455    1452     765
CTETRA       344       1    1593    1592    2290    2536    1615    1638+
+           1637     706     711    1574
CTETRA       345       1      42    2372    2371    2427     480    2376+
+            767     638    1444    1441
CTETRA       346       1    2207    1045    1685    2206     768     741+
+           1833    2218     750    1870
CTETRA       347       1    2501    2502    2365      10    2522     665+
+            664     769     746     708
CTETRA       348       1       2    1033    1029    1030      59    1153+
+             54     141    1148    1154
CTETRA       349       1      43    1726    2570    1729     770    1993+
+            475     464    1992    1991
CTETRA       350       1      24    2600    1702    1737     237    2008+
+            240     223    2038    2037
CTETRA       351       1    2193    2253    2194    1741    2154    2153+
+           2230    2046     771    2047
CTETRA       352       1      25    2569    1707    1730     772    1957+
+            280     421    1989    1988
CTETRA       353       1      18    2371      33    2506     174     773+
+            313     178     177     314
CTETRA       354       1      14    1684    2316      17     124    1799+
+            125     774     730     775
CTETRA       355       1      17    2316    2331    2622     775    1008+
+            776     339    2326    1010
CTETRA       356       1    2200    1708    2247    1720    1920     777+
+           2165    1919    1918     778
CTETRA       357       1    2193    1741    2254    2253    2046     779+
+           2151    2154     771    2270
CTETRA       358       1    1736    2254    2192    2193     780    2152+
+           2029    2030    2151    2229
CTETRA       359       1    2192    2255    2254    1071    2149    2269+
+           2152     781    1329    1330
CTETRA       360       1    2244    2245    1011    1666    2256    1094+
+           1095     705     760     569
CTETRA       361       1    2204    1692    2203    1032    1840    1839+
+           2216     782     783     784
CTETRA       362       1    1743    1758    1055    2236    2114     785+
+            290     714     713    1261
CTETRA       363       1    1666    1016      46    2202     761     786+
+            570    1894     787     788
CTETRA       364       1    2202    1016      46    1715     787     786+
+            788    1900     789     573
CTETRA       365       1    2240    1045    2206    2241    1207     750+
+           2180    2261    1206    2177
CTETRA       366       1    2241    2205    2242    1046    2178    2175+
+           2260    1201     790    1200
CTETRA       367       1    2236    1758    1055    1064     713     785+
+           1261    1292     614    1290
CTETRA       368       1    2212    2235    1020    1064    2189    1296+
+            791     792    1293    1295
CTETRA       369       1    2248    2199    1721    1708    2163    1932+
+            793     794    1941    1942
CTETRA       370       1    1708    1720    1089    2247    1918     795+
+            796     777     778    1416
CTETRA       371       1    2212    1750    1064    1020    2090     129+
+            792     791     797    1295
CTETRA       372       1    1595    2478    2281    1594     798    1551+
+           1624    1600     799    1623
CTETRA       373       1    2253    2194    1741    1733    2153    2047+
+            771     800    2022    2048
CTETRA       374       1    2253    1735    2252    2194     801     469+
+           2273    2153    2020    2156
CTETRA       375       1    2254    1019    2253    1741    1331    1332+
+           2270     779     802     771
CTETRA       376       1    1071    1736    2254    2192     803     780+
+           1330     781    2029    2152
CTETRA       377       1    2192    1071    1736    1697     781     803+
+           2029    2035     226    2034
CTETRA       378       1    2255    1068    1071    1697    1317    1328+
+           1329     804     229     226
CTETRA       379       1    2254    1066    1741    1736    1333     805+
+            779     780     806    2053
CTETRA       380       1    2254    1066    1019    1741    1333    1307+
+           1331     779     805     802
CTETRA       381       1    2212    1064    2211    2235     792     807+
+           2233    2189    1293    2190
CTETRA       382       1    2200    2199    2247    1708    2224    2166+
+           2165    1920    1941     777
CTETRA       383       1    2195    2252    1735    2194    2155     469+
+           2021    2227    2156    2020
CTETRA       384       1    2253    1079    2252    1735    1366    1368+
+           2273     801     471     469
CTETRA       385       1    1736    1071      24    1697     803     227+
+            222    2034     226     225
CTETRA       386       1    2255    2610    2611    1697    2150    2300+
+           2268     804    2080     808
CTETRA       387       1    1066    1736    1701    1738     806    2039+
+            809     518    2045    2043
CTETRA       388       1    1071    1066    1736    1701    1327     806+
+            803     810     809    2039
CTETRA       389       1    2193    1736    2254    1741    2030     780+
+           2151    2046    2053     779
CTETRA       390       1      16    2338    1028    1046     811    1202+
+            503     146    1203    1199
CTETRA       391       1    2241    1046    1045    2206    1201    1204+
+           1206    2177     744     750
CTETRA       392       1      43    1074    1725    1075     473     812+
+            483     463    1346     813
CTETRA       393       1      43    1726    1729    1725     770    1992+
+            464     483    1995    1994
CTETRA       394       1      43    1725    1729    1075     483    1994+
+            464     463     813     466
CTETRA       395       1      43    2507    2506    2624     478    2517+
+            814     476    1997    1880
CTETRA       396       1    1016    2246    1015    2201    1097    1099+
+           1098     815    2167     816
CTETRA       397       1    2201    2246    1720    2200    2167     817+
+           1923    2222    2168    1919
CTETRA       398       1    2236    1743    2237    1055     714     818+
+           2265    1261     290    1260
CTETRA       399       1    1064    2211    2236    1758     807    2187+
+           1292     614    2115     713
CTETRA       400       1    2531    1591    2292    1590     724    1641+
+           1571     819    1607    1642
CTETRA       401       1    2527    1589    2293    2526     820    1618+
+           1568    2542     457    1580
CTETRA       402       1    1590    2292    2530    2529    1642    1570+
+            821     822    1572    2545
CTETRA       403       1    2528    2527    1589    2293    2543     820+
+            823    1567    1568    1618
CTETRA       404       1    2366      22    1595    2502     670     346+
+            748     669     668     747
CTETRA       405       1       8    2436    1589    2435      91     824+
+            825     764    2442     826
CTETRA       406       1       9    1593    2310    2309     189    1634+
+            197      99    1633    2312
CTETRA       407       1    2628    2289    1593    2309    1585    1636+
+            710     827    1635    1633
CTETRA       408       1    1597    2484    2460    2459     828    1461+
+            444     829    1458    2471
CTETRA       409       1    1598    2278    2485    2486    1630    1564+
+            830     831    1565    2492
CTETRA       410       1    2457    2487    2310    2486    1455     765+
+            198    1454    2491     832
CTETRA       411       1    2488    1594    2282    2631     833    1622+
+           1561    2489     834    1550
CTETRA       412       1       9    2457    2310    1598     195     198+
+            197     717     835    1632
CTETRA       413       1      35    2373    1014    1074     735    1113+
+            737     537    1340    1341
CTETRA       414       1    2391    2592    1079      29    1663     836+
+           1370     837     282     838
CTETRA       415       1       9    2424    2627    2374     188    1449+
+            254     187    1447    2387
CTETRA       416       1       8    2363    1589    2630      92     839+
+            825      93     287     840
CTETRA       417       1      22    2368    2430    2369     209    1435+
+            617     212    2375    1438
CTETRA       418       1    1590      22    1595    2366     345     346+
+           1602     841     670     748
CTETRA       419       1    1596    2481    2280    2480     842    1555+
+           1626     843    2497    1554
CTETRA       420       1      22    1596    1595    2463     204    1604+
+            346     672     673     844
CTETRA       421       1    2280    1596    2482    2481    1626     429+
+           1556    1555     842    2496
CTETRA       422       1    2279    1596    2482    2280    1627     429+
+           1557    2285    1626    1556
CTETRA       423       1      33    2506      42    2460     314     845+
+            440     442    1483     443
CTETRA       424       1    2426    1593    1598    2425     846    1614+
+            847    2452     848     849
CTETRA       425       1    1728      34    1670    1731     320     850+
+           1966    1967     319    1970
CTETRA       426       1       9    2374    2627    2509     187    2387+
+            254     193     851     527
CTETRA       427       1    1724    2508    2373    2507    2002     852+
+            853    2000    2516     854
CTETRA       428       1    1590    2292    2531    2530    1642    1571+
+            819     821    1570    2546
CTETRA       429       1      10    2433    2365    2434     855    1429+
+            708     111    2444    1430
CTETRA       430       1    1595    2479    2480    2281     158    2498+
+            417    1624    1552    1553
CTETRA       431       1    2251    1073    2195    2252    1356     856+
+           2158    2274    1373    2155
CTETRA       432       1    1670    2196    1731    1073    1972    1971+
+           1970     857     858     859
CTETRA       433       1    2250    1731    1076    1732     860     861+
+           1363     862    1979     419
CTETRA       434       1    2250    1076    1731    1078    1363     861+
+            860    1361    1365     318
CTETRA       435       1      11    2603    1746    2602     759    2072+
+            863     754    2607    2071
CTETRA       436       1    2610    2611    1069    1020    2300    1314+
+            685     700    1313    1311
CTETRA       437       1    1069    2610    1697    2611     685    2080+
+            694    1314    2300     808
CTETRA       438       1    1718    1720    1089    1708    1921     795+
+            864    1911    1918     796
CTETRA       439       1    2247    1708    1088    1089     777     696+
+           1408    1416     796    1417
CTETRA       440       1    1720    1015    2201    1715     865     816+
+           1923    1924     574    1902
CTETRA       441       1    1720    1089    1015    1719     795    1418+
+            865    1922     866     867
CTETRA       442       1      47    1752    1753    1698     605    2083+
+            738     703    2079    2082
CTETRA       443       1    2205    1046    1027    2242     790    1198+
+            868    2175    1200    1163
CTETRA       444       1    2205    1029    1694    2204     145      53+
+           1861    2217     869    1862
CTETRA       445       1    1029    2242    2205    1027    1161    2175+
+            145    1162    1163     868
CTETRA       446       1    2204    1032    1029    1692     782    1151+
+            869    1840     783      56
CTETRA       447       1    2204    1032    2203    2243     782     784+
+           2216    2173    1147    2174
CTETRA       448       1       8    2360    2361    2510     203    2381+
+            870     200     201     757
CTETRA       449       1       8    2362    2361    2437      90    2382+
+            870      98    1424    1421
CTETRA       450       1    1024    1748    1747      12     596    2074+
+            529     600     135     130
CTETRA       451       1    1701    1071      24    1736     810     227+
+            224    2039     803     222
CTETRA       452       1    2511    2361    1747    2510     530     528+
+           2073    2513     757    2075
CTETRA       453       1    1075    1728    1074    1725     871     538+
+           1346     813    1987     812
CTETRA       454       1    1073    1078    1731      34    1355     318+
+            859     322     317     319
CTETRA       455       1    2250    1732    2197    1731     862    1975+
+           2159     860    1979    1973
CTETRA       456       1    1728    1729    1075    1731    1968     466+
+            871    1967    1969     872
CTETRA       457       1    2212    1758    2211    1064    2118    2115+
+           2233     792     614     807
CTETRA       458       1    2237    1012    1668    2209    1231     381+
+            873    2186     874    1765
CTETRA       459       1    2237    1761    2210    1668     875    2133+
+           2185     873    2134    1766
CTETRA       460       1    2438       8    2437    2309     104      98+
+           2440     101     102     876
CTETRA       461       1    2509    2374      27    1703     851     525+
+            255    1955     523     524
CTETRA       462       1      35    1724    1728    1727     533    1985+
+            331     877    1984    1963
CTETRA       463       1    2212    1758    1064    1750    2118     614+
+            792    2090    2119     129
CTETRA       464       1       7    1676    2208    1672     557    1781+
+             85      79    1782    1778
CTETRA       465       1    1048    2207    1045    1685     217     768+
+           1222     878    1833     741
CTETRA       466       1      32    1749    1756    1745     355    2093+
+            299     301    2098    2095
CTETRA       467       1      31    1060    1056    1059     879    1265+
+            601     880    1270    1267
CTETRA       468       1    2630    2501      10    2465    2523     769+
+            881    1495    1493     882
CTETRA       469       1      38    1760    1669    2615     387    2129+
+            403     409    2128    2065
CTETRA       470       1       6    2365    1041    2501     456    1181+
+            451     450     664     453
CTETRA       471       1    2244    2245    1666    2202    2256     760+
+            705    2172    2169    1894
CTETRA       472       1      36      38    2614    2615     411     378+
+            392     410     409    2301
CTETRA       473       1    2204    2242    2205    1029    2176    2175+
+           2217     869    1161     145
CTETRA       474       1    2255    1697    2611    1068     804     808+
+           2268    1317     229    1315
CTETRA       475       1    2212    2610    1020    2611    2232     700+
+            791    2191    2300    1313
CTETRA       476       1    1697      47    1752    1069     688     605+
+           2078     694     702     687
CTETRA       477       1      13    2413    1063    1021     540    1282+
+            542     341    1281    1283
CTETRA       478       1      42    2460    2506    2459     443    1483+
+            845     883    2471    1484
CTETRA       479       1    2507    1074    2373    1724     884    1340+
+            854    2000     539     853
CTETRA       480       1    2507    1725    1074    1724    1999     812+
+            884    2000    1986     539
CTETRA       481       1    1735    1670      34    2195    2027     850+
+            470    2021    2026     885
CTETRA       482       1      24    2600    1737    1698     237    2038+
+            223     886    2041    2033
CTETRA       483       1    2237    2210    1761    1743    2185    2133+
+            875     818    2132    2135
CTETRA       484       1    2207    2240    1048    1045    2179    1224+
+            217     768    1207    1222
CTETRA       485       1    2369    2505      33    2504     308     312+
+            311     716    2519     715
CTETRA       486       1      33    2369    2504    1596     311     716+
+            715     433     887     208
CTETRA       487       1      20    2505    1712    1713     309    1882+
+            495     181    1881    1883
CTETRA       488       1    2505      20      44    2369     309     640+
+            497     308     307     646
CTETRA       489       1       2    1694    1692    1678      52    1867+
+             55     509    1868    1856
CTETRA       490       1       4    1030    1029    1027     142    1154+
+             68     153    1159    1162
CTETRA       491       1    2205    1690    1046    2206    1865     150+
+            790    2219    1871     744
CTETRA       492       1    2241    1046    2206    2205    1201     744+
+           2177    2178     790    2219
CTETRA       493       1    2247    1089    2246    1720    1416    1415+
+           2277     778     795     817
CTETRA       494       1    2245    2202    1016    1666    2169     787+
+           1096     760    1894     761
CTETRA       495       1    1016    2201    2202    2245     815    2221+
+            787    1096    2170    2169
CTETRA       496       1      27    1703    1700    1704     524    2009+
+            888     258    1956    2014
CTETRA       497       1      22    2504    2369    1596     207     716+
+            212     204     208     887
CTETRA       498       1    1066    1704    1065      21     515     446+
+           1302     517     257     252
CTETRA       499       1    2463    1596    1595    2480     673    1604+
+            844    1466     843     417
CTETRA       500       1    2360       9       8    2438     202     103+
+            203    1419     100     104
CTETRA       501       1    2360      26    2415    2510     246     235+
+           1172     201     245     758
CTETRA       502       1       9    2509    2510    2456     193    2514+
+            192     196    1478    1475
CTETRA       503       1    1701      27    1704    1066     889     258+
+           2012     809     516     515
CTETRA       504       1      10    2365    2501    2364     708     664+
+            769     110    2385     588
CTETRA       505       1      13    2603    2618    1751     609    2609+
+            610     607    2126    2087
CTETRA       506       1      19    1088    1708    1718     487     696+
+            697     303     494    1911
CTETRA       507       1    2248    2199    2198    1721    2163    2223+
+           2164     793    1932    1931
CTETRA       508       1    1720    1089    1719    1718     795     866+
+           1922    1921     864    1916
CTETRA       509       1    2247    1088    1708    2248    1408     696+
+            777    2276    1407     794
CTETRA       510       1    2248    2249    1086    1721    2275    1398+
+           1399     793     890     658
CTETRA       511       1      25    1086    1017    2249     698    1396+
+            424     891    1398    1364
CTETRA       512       1    2462    1596    2482    2461     205     429+
+           1465    2473     722    1462
CTETRA       513       1    1594    2465    1595    2478     892     160+
+           1600     799    1470     798
CTETRA       514       1    2196    2251    1073    2195    2157    1356+
+            858    2228    2158     856
CTETRA       515       1    1598    2457    2310    2486     835     198+
+           1632     831    1454     832
CTETRA       516       1      30    2352    2353    1022     650    2359+
+            353     352    1186    1252
CTETRA       517       1      10    2502    2464    2501     746    1491+
+            893     769    2522    1494
CTETRA       518       1    2373    2372    2507    2426    2388     481+
+            854    1446    1443     763
CTETRA       519       1       9      21    2360    2510     190     247+
+            202     192     191     201
CTETRA       520       1    1598    2458    2486    2485     894    1457+
+            831     830    1456    2492
CTETRA       521       1    2504    1714      17    2369    1886     639+
+            218     716     645     213
CTETRA       522       1      33    2461    1596    2504     647     722+
+            433     715    1488     208
CTETRA       523       1      47      13      48    2618     604     680+
+            691     683     610     704
CTETRA       524       1    1592      42    1597    1591     895     441+
+           1610    1611     896    1609
CTETRA       525       1      47    2618    1753    1751     683    2085+
+            738     608    2087    2086
CTETRA       526       1      10    1594    2465    1595     675     892+
+            882     676    1600     160
CTETRA       527       1    2480    1595    2463    2464     417     844+
+           1466    1469     159    2475
CTETRA       528       1    1591      42    1597      33     896     441+
+           1609     432     440     431
CTETRA       529       1    2460    2461    1597      33    2472     723+
+            444     442     647     431
CTETRA       530       1    2502    1595    2464    2463     747     159+
+           1491    1492     844    2475
CTETRA       531       1    2535    2426    2536    1592    1521    1520+
+           2551     712     897     711
CTETRA       532       1      42      43    2371    2372     479     482+
+            767     480     472    2376
CTETRA       533       1       9    2360    2627    2626     202    2386+
+            254     182    1420    2307
CTETRA       534       1    2425    2536    1593    2537    1523     706+
+            848    1522    2552     707
CTETRA       535       1    1593    2538    2424    2537     709    1524+
+            185     707    2553    1525
CTETRA       536       1      17    2504    1684    2622     218    1792+
+            730     339    1791    1793
CTETRA       537       1      22    2530    1590    2531     898     821+
+            345     899    2546     819
CTETRA       538       1    1073    2196    1731    2251     858    1971+
+            859    1356    2157     900
CTETRA       539       1    2436    1589    2526    2309     824     457+
+           1500     901    1616     458
CTETRA       540       1    2309    2436    2525    2526     901    1501+
+            902     458    1500    2541
CTETRA       541       1    2201    1016    1715    1015     815     789+
+           1902     816    1098     574
CTETRA       542       1      27    2374    2627    1067     525    2387+
+            526     272    1310    1309
CTETRA       543       1    2509    2508    2374    1703    2515     721+
+            851    1955    1954     523
CTETRA       544       1    1593    2374    1598    2425     186     718+
+           1614     848    1448     849
CTETRA       545       1    2485    1598    2484    2278     830     903+
+           2493    1564    1630    1563
CTETRA       546       1    1687       6    1048    1686     460      89+
+            448    1831      74      80
CTETRA       547       1      45    1050       7    1054     567      83+
+            556     559    1245     560
CTETRA       548       1    2248    1708    1721    1086     794    1942+
+            793    1399     699     658
CTETRA       549       1       7    1049    2208    1054      76     904+
+             85     560    1244     583
CTETRA       550       1      12    1757    1748    1747     122    2106+
+            135     130    2110    2074
CTETRA       551       1    1012    2238    2209    2237    1230    2183+
+            874    1231    2262    2186
CTETRA       552       1    2237    2210    2209    1668    2185    2213+
+           2186     873    1766    1765
CTETRA       553       1      45    1054      37    1053     559     563+
+            562     905    1246     906
CTETRA       554       1      37    2350    1053    2349     551    1237+
+            906     399    2356    1236
CTETRA       555       1       2    1033    1692    1029      59      63+
+             55      54    1153      56
CTETRA       556       1      28    1692    1032    1666     505     783+
+            620     618    1842     619
CTETRA       557       1    1030       1    1031       4     143     363+
+           1150     142     139     907
CTETRA       558       1      46    2202    1716    1666     788    1895+
+            908     570    1894    1892
CTETRA       559       1       2    1692       3    1678      55      62+
+             57     509    1856     368
CTETRA       560       1      22    1590    2432    2366     345     909+
+            910     670     841    1431
CTETRA       561       1    2244    2203    1666    1032    2171    1841+
+            705    1115     784     619
CTETRA       562       1    2244    2203    1032    2243    2171     784+
+           1115    2258    2174    1147
CTETRA       563       1    1082    1719      44    1083     911     912+
+            913    1395     914     915
CTETRA       564       1    1015    1089    1083    1719    1418    1413+
+           1383     867     866     914
CTETRA       565       1    1083    1719      44    1015     914     912+
+            915    1383     867     643
CTETRA       566       1    2208    1054    2238    2209     583    1242+
+           2184    2215     916    2183
CTETRA       567       1       7    1049    1054    1050      76    1244+
+            560      83    1221    1245
CTETRA       568       1    2208    2239    1054    1049    2181    1243+
+            583     904    1241    1244
CTETRA       569       1       6    1687    1689    1686     460    1828+
+            459      74    1831    1830
CTETRA       570       1       6    2559    2621    1040     917    1528+
+            918     455     919    1211
CTETRA       571       1    1687    1047    1685    1048     920     739+
+           1836     448    1223     878
CTETRA       572       1      28       3    1033    1692     504      58+
+            921     505      62      63
CTETRA       573       1    2204    1029    2243    2242     869    1152+
+           2173    2176    1161    2259
CTETRA       574       1      28    1679    1692    1691     265    1855+
+            505     622    1854    1851
CTETRA       575       1      28    1011    1032    1036     621    1114+
+            620     628    1122    1116
CTETRA       576       1    2205       4    1046    1690     144     147+
+            790    1865     151     150
CTETRA       577       1    2373    2507    2508    2426     854    2516+
+            852    1446     763     922
CTETRA       578       1    2367    2503    2366       3     338     671+
+           2379     513     508     923
CTETRA       579       1      23    1682    1683    2503     514    1796+
+            343     221    1790    1795
CTETRA       580       1    2503    2366       3    1681     671     923+
+            508    1788     924     367
CTETRA       581       1      23    1038    2367    1039     511    1139+
+            336     348    1132    1138
CTETRA       582       1      22    2432    2367    2366     910    1434+
+            337     670    1431    2379
CTETRA       583       1      22    2431    2531    2430     925    1510+
+            899     617    2447    1513
CTETRA       584       1       3    1034    2367    1038      61    1141+
+            513     512    1127    1139
CTETRA       585       1      22    2463    2503    2462     672    1489+
+            219     206    2474    1490
CTETRA       586       1    2291    1591    2292    2531    1640    1641+
+           2296    1578     724    1571
CTETRA       587       1    1075    1725    1729    1728     813    1994+
+            466     871    1987    1968
CTETRA       588       1    1074    1725    1728    1724     812    1987+
+            538     539    1986    1985
CTETRA       589       1    1078    1728    1077    1074     321     332+
+           1360    1358     538    1351
CTETRA       590       1    2534      42    2427    1592     637     638+
+           1519     726     895     926
CTETRA       591       1    2374    1598    2425    2508     718     849+
+           1448     721     720     927
CTETRA       592       1    1075    1731    1078    1728     872     318+
+           1359     871    1967     321
CTETRA       593       1      35    1074    1014    1077     537    1341+
+            737     333    1351    1350
CTETRA       594       1      35    2373    1724    2508     735     853+
+            533     532     852    2002
CTETRA       595       1      18      33    2371    2370     313     773+
+            174     306     928    2389
CTETRA       596       1      28    1033    1038    1036     921    1124+
+            624     628    1118    1125
CTETRA       597       1      22    2431    2368    2367     925    1436+
+            209     337    1433    2378
CTETRA       598       1    2209    1012    1668    1675     874     381+
+           1765    1767     380    1762
CTETRA       599       1    2237    1761      39    1743     875     396+
+            400     818    2135     929
CTETRA       600       1      25    1722    1706    1707     279    1929+
+            232     280    1934    1935
CTETRA       601       1    1027    2205       4    1046     868     144+
+            153    1198     790     147
CTETRA       602       1    1696    1045    2555      16     751     753+
+           1875     749     752     930
CTETRA       603       1      25    2569    1730    2405     772    1989+
+            421     426    1540     931
CTETRA       604       1      22    1591    2430    2531     616     615+
+            617     899     724    1513
CTETRA       605       1    2208    1048    1672    2207      86      81+
+           1778    2214     217    1779
CTETRA       606       1    1685    1045    1696    2206     741     751+
+           1873    1870     750    1872
CTETRA       607       1    2338    2555    1045      16    1535     753+
+           1205     811     930     752
CTETRA       608       1       4    1690    1695    2556     151    1860+
+             67     932    1859    1857
CTETRA       609       1      33    2369    2429    2370     311    1437+
+            435     928    2390    1440
CTETRA       610       1      28    1036    1032    1033     628    1116+
+            620     921    1118    1117
CTETRA       611       1       2    1695    1694    1678      66    1864+
+             52     509    1869    1868
CTETRA       612       1      45    1054    1053    1050     559    1246+
+            905     567    1245    1239
CTETRA       613       1    2365    1689       6    1040     663     459+
+            456    1179     667     455
CTETRA       614       1      45    1042    1043    1044     554    1196+
+            549     548    1195    1190
CTETRA       615       1    2620    2559    2621       6    2560    1528+
+           2304     461     917     918
CTETRA       616       1    2426    2536    1593    2425    1520     706+
+            846    2452    1523     848
CTETRA       617       1    2479    2478    2281    1595    2499    1551+
+           1552     158     798    1624
CTETRA       618       1       5    2364    1041    1042     586    1192+
+            452     555    1194    1193
CTETRA       619       1    2579    1044    2364    1688     933    1187+
+            732    1816     589     587
CTETRA       620       1    2366      10    2365    2502     745     708+
+           2383     669     746     665
CTETRA       621       1      39    2237    1012    1668     400    1231+
+            395     397     873     381
CTETRA       622       1    1668    1761      39    2237    2134     396+
+            397     873     875     400
CTETRA       623       1      28       3    1038    1033     504     512+
+            624     921      58    1124
CTETRA       624       1      28    1036    1038    1037     628    1125+
+            624     629    1123    1131
CTETRA       625       1       3    1678    1682    1681     368    1806+
+            507     367    1811    1789
CTETRA       626       1       2    1034    1033    1030      60    1126+
+             59     141    1149    1148
CTETRA       627       1      42      43    2507    2506     479     478+
+            477     845     814    2517
CTETRA       628       1      17    2623    1039    2368     162    1129+
+            347     211    1103    1133
CTETRA       629       1      23    1684      14      17     344     124+
+            261     216     730     774
CTETRA       630       1      12    1748    1757    1754     135    2106+
+            122     132    2104    2107
CTETRA       631       1    2361      11    1024    1747     546     934+
+           1173     528     131     529
CTETRA       632       1      24    1737    1697    1698     223    2031+
+            225     886    2033    2032
CTETRA       633       1    2192    1697    2255    1071    2035     804+
+           2149     781     226    1329
CTETRA       634       1    2611    1697    1069    1068     808     694+
+           1314    1315     229    1316
CTETRA       635       1      25    1707    1706    1730     280    1935+
+            232     421    1988    1978
CTETRA       636       1    1743    1060    2237    1055     935    1263+
+            818     290    1262    1260
CTETRA       637       1      37    2209    2238    1054     936    2183+
+            937     563     916    1242
CTETRA       638       1      37    1054    1676    2209     563     561+
+            564     936     916    1780
CTETRA       639       1       5    1688    1673    1686     584    1824+
+             88      72    1826    1825
CTETRA       640       1      45    1676       7    1674     558     557+
+            556     938    1773     939
CTETRA       641       1       7    1673    1672    1686      87    1783+
+             79      78    1825    1837
CTETRA       642       1      42    2459    2506    2507     883    1484+
+            845     477    1481    2517
CTETRA       643       1      41    1018    2405    1017     659    1338+
+            425     422    1339    1337
CTETRA       644       1    1044    2363    2579    2364    1188     940+
+            933    1187    2384     732
CTETRA       645       1       5    1044    2364    1042     552    1187+
+            586     555    1195    1194
CTETRA       646       1       9    2374    1598    1593     187     718+
+            717     189     186    1614
CTETRA       647       1      20    1085    2370    1082     941    1389+
+            305     315    1391    1387
CTETRA       648       1      20      44    2369    1085     640     646+
+            307     941     942    1390
CTETRA       649       1    2309    2628       9    1593     827     184+
+             99    1633     710     189
CTETRA       650       1    2567    2403      19      18    1544     943+
+            165     166     944     164
CTETRA       651       1      20    1082    2370    1081     315    1387+
+            305     170    1386    1385
CTETRA       652       1      41    1018    2404    2405     659    1375+
+            427     425    1338    2409
CTETRA       653       1    1732      25    1076    2249     230     418+
+            419     945     891    1362
CTETRA       654       1    2251    1073    1078    1731    1356    1355+
+           1357     900     859     318
CTETRA       655       1      25    1076    2249    1017     418    1362+
+            891     424    1336    1364
CTETRA       656       1    1088    1082    1089    1718    1414    1412+
+           1417     494     493     864
CTETRA       657       1    2249    1721      25    1086     890     662+
+            891    1398     658     698
CTETRA       658       1    2250    2249    2197    1732    2272    2162+
+           2159     862     945    1975
CTETRA       659       1    2197    2249    2198    1732    2162    2161+
+           2226    1975     945    1974
CTETRA       660       1      25    1721    1706    1722     662    1928+
+            232     279    1930    1929
CTETRA       661       1    2619      48    1070      13     677     681+
+           1322     701     680     342
CTETRA       662       1    2253    2194    1733    1735    2153    2022+
+            800     801    2020    2017
CTETRA       663       1    2250    2251    1078    1731    2271    1357+
+           1361     860     900     318
CTETRA       664       1    2207    2240    2239    1048    2179    2263+
+           2182     217    1224    1240
CTETRA       665       1    1075    1078    1074    1728    1359    1358+
+           1346     871     321     538
CTETRA       666       1      34    1728    1670    1671     320    1966+
+            850     329    1964    1965
CTETRA       667       1    1731    1729    1076    1732    1969     465+
+            861    1979    1980     419
CTETRA       668       1    1089    1082    1719    1718    1412     911+
+            866     864     493    1916
CTETRA       669       1      40    1088    1087    1086     488    1409+
+            485     654    1411    1402
CTETRA       670       1    1719    1715    1015    1720    1927     574+
+            867    1922    1924     865
CTETRA       671       1      44    1085    1082    1083     942    1391+
+            913     915    1394    1395
CTETRA       672       1      18      20      19    1713     180     172+
+            164     167     181     168
CTETRA       673       1    1598    2426    2507      42     847     763+
+            946     947     731     477
CTETRA       674       1      44    2327    1084    2328     728    1380+
+            948     949    2333    1379
CTETRA       675       1    2369    2370      20    1085    2390     305+
+            307    1390    1389     941
CTETRA       676       1      20    1712    1718    1713     495    1909+
+            302     181    1883    1908
CTETRA       677       1    1718    1082    1719    1712     493     911+
+           1916    1909     496    1915
CTETRA       678       1      44    1712    1714    1711     499    1890+
+            498     950    1891    1889
CTETRA       679       1      44    1085    1083    1084     942    1394+
+            915     948    1393    1382
CTETRA       680       1      20    1712      44    1082     495     499+
+            640     315     496     913
CTETRA       681       1    2395    2374    2588    1067    1111     522+
+           1655    1304    1310     276
CTETRA       682       1      21    1705    2509    1704     250    1948+
+            194     257    1950    1949
CTETRA       683       1      29    1741    1019    1739     951     802+
+            273     266    2051     521
CTETRA       684       1      44    1719    1712    1711     912    1915+
+            499     950    1917    1891
CTETRA       685       1    1712    1082    1719      44     496     911+
+           1915     499     913     912
CTETRA       686       1      44    1711    1714    2320     950    1889+
+            498     952    1884    1888
CTETRA       687       1      17      23    1683    2503     216     343+
+            729     220     221    1795
CTETRA       688       1       3    1681    2366       1     367     924+
+            923     366     365     953
CTETRA       689       1      22    2432    2431    2367     910    2446+
+            925     337    1434    1433
CTETRA       690       1       2       3       1    1678      57     366+
+            140     509     368      50
CTETRA       691       1    1064    1757    1758      12     127    2113+
+            614     954     122     545
CTETRA       692       1      31    1755    1743    1744     292    2102+
+            291     652    2101    2103
CTETRA       693       1      31    1055    1060    1743     289    1262+
+            879     291     290     935
CTETRA       694       1    1055    1758    1755    1061     785    2117+
+            293    1280     544     591
CTETRA       695       1    1020    1063      13    1064    1288     542+
+            611    1295    1294     126
CTETRA       696       1    2212    2235    2611    1020    2189    2267+
+           2191     791    1296    1313
CTETRA       697       1      43    2625    2372    2406     474    1105+
+            472     955    2407    1107
CTETRA       698       1      43    1075    2406    2372     463    1342+
+            955     472    1344    1107
CTETRA       699       1    2508    2426    2425    2373     922    2452+
+            927     852    1446    1445
CTETRA       700       1      35    1074    1077    1728     537    1351+
+            333     331     538     332
CTETRA       701       1    1076    1731    1078    1075     861     318+
+           1365    1343     872    1359
CTETRA       702       1      12    1061    1064    1063     137    1291+
+            954     116    1286    1294
CTETRA       703       1    2482    1597    2279    2483     430    1628+
+           1557    2495     956    1558
CTETRA       704       1      24    1698    2599    2600     886    2042+
+            243     237    2041    2606
CTETRA       705       1      24    1701    1702    1065     224    2013+
+            240     693     445     447
CTETRA       706       1    2208    2239    2238    1054    2181    2264+
+           2184     583    1243    1242
CTETRA       707       1      37    1669    1675    1676     402    1771+
+            401     564    1768    1772
CTETRA       708       1       7    1673       5    1674      87      88+
+             82     939    1775     957
CTETRA       709       1      37    2238    1012    1052     937    1230+
+            371     958    1232    1227
CTETRA       710       1       7    1050    1051    1049      83    1216+
+             77      76    1221    1220
CTETRA       711       1    1688    1044    1674    2579     589     959+
+           1817    1816     933    1784
CTETRA       712       1       6    1688       5    1686     585     584+
+             71      74    1826      72
CTETRA       713       1    2207    1048    1672    1685     217      81+
+           1779    1833     878    1832
CTETRA       714       1       6    1048    1047    1687      89    1223+
+            454     460     448     920
CTETRA       715       1    2207    2206    2240    1045    2218    2180+
+           2179     768     750    1207
CTETRA       716       1       5    1673    1688    1674      88    1824+
+            584     957    1775    1817
CTETRA       717       1      37    1054    2238    1052     563    1242+
+            937     958    1247    1232
CTETRA       718       1       6    1051    1041    1047      70    1218+
+            451     454    1219    1209
CTETRA       719       1      46    1011    2330    1016     568    1092+
+            578     786    1091    1090
CTETRA       720       1    2246    1720    1015    2201     817     865+
+           1099    2167    1923     816
CTETRA       721       1      31    1756    1755    1744     296    2108+
+            292     652    2096    2101
CTETRA       722       1    1743    1761      39      31    2135     396+
+            929     291     386     960
CTETRA       723       1      31      32    1057    1056     297     359+
+            653     601     603    1268
CTETRA       724       1      31    1743    1060      39     291     935+
+            879     960     929     393
CTETRA       725       1    2208    1054    2209    1676     583     916+
+           2215    1781     561    1780
CTETRA       726       1      39    1761      38      31     396     384+
+            379     960     386     385
CTETRA       727       1      15    1748    1754    1756     136    2104+
+            133     295    2094    2105
CTETRA       728       1    1064    1063      13      12    1294     542+
+            126     954     116     121
CTETRA       729       1      31    1756      15    1755     296     295+
+            294     292    2108     961
CTETRA       730       1    1061      15    1754    1755     962     133+
+            543     591     961    2109
CTETRA       731       1      47    2599    1753    2618     692    2084+
+            738     683    2608    2085
CTETRA       732       1      31    1056    1060    1055     601    1265+
+            879     289    1266    1262
CTETRA       733       1      31    1059    1056    1057     880    1267+
+            601     653    1254    1268
CTETRA       734       1      31    1056    1055    1755     601    1266+
+            289     292     590     293
CTETRA       735       1      15    1754    1755    1756     133    2109+
+            961     295    2105    2108
CTETRA       736       1    1056      15    1755      31     602     961+
+            590     601     294     292
CTETRA       737       1      11    1024    1747      12     934     529+
+            131     115     600     130
CTETRA       738       1    2619      13    2413    2618     701     540+
+           2420    2303     610    2148
CTETRA       739       1    1024      15      12    1062     594     134+
+            600    1275     598     138
CTETRA       740       1    2610    1750      13    1752    2088     128+
+            686    2081    2089     606
CTETRA       741       1    1020    1750      13    2610     797     128+
+            611     700    2088     686
CTETRA       742       1    2236    1743    2211    2210     714    2116+
+           2187    2188    2132    2234
CTETRA       743       1    1055    1743    1755    1758     290    2102+
+            293     785    2114    2117
CTETRA       744       1      29      27    1739    1019     269     268+
+            266     273     274     521
CTETRA       745       1      36      38      31      39     411     385+
+            406     389     379     960
CTETRA       746       1      15    1062    1056    1061     598    1273+
+            602     962    1276    1279
CTETRA       747       1    2366       3    1035    2367     923     370+
+           1135    2379     513    1140
CTETRA       748       1      26    2360    2415    1065     246    1172+
+            235     251    1298    1297
CTETRA       749       1      23    1683    1679    1680     343    1803+
+            264     263    1802    1804
CTETRA       750       1    1031       4    1028    1030     907     152+
+           1156    1150     142    1158
CTETRA       751       1      15    1748    1756    1749     136    2094+
+            295     595    2070    2093
CTETRA       752       1      32    1062    1023    1057     597    1274+
+            599     359    1272    1271
CTETRA       753       1      12    1025    1061    1063     114    1277+
+            137     116    1285    1286
CTETRA       754       1    2208    1048    2239    1049      86    1240+
+           2181     904    1226    1241
CTETRA       755       1      15      32    1056    1062     298     603+
+            602     598     597    1273
CTETRA       756       1       3    2367    1034    1035     513    1141+
+             61     370    1140    1142
CTETRA       757       1    2248    1708    1086    1088     794     699+
+           1399    1407     696    1411
CTETRA       758       1       1    1681    2366    2558     365     924+
+            953     963    1787     964
CTETRA       759       1      17    2503    1683    2504     220    1795+
+            729     218    2520    1797
CTETRA       760       1      12    1064    1061    1758     954    1291+
+            137     545     614     544
CTETRA       761       1    1025    1024      11      12    1174     934+
+            112     114     600     115
CTETRA       762       1      48    2618    2599      47     704    2608+
+            678     691     683     692
CTETRA       763       1      13    1759    1750    1757     612    2120+
+            128     120    2123    2122
CTETRA       764       1    2192    1697    2610    2255    2035    2080+
+           2231    2149     804    2150
CTETRA       765       1      14      28      23    1037     259     262+
+            261     626     629     627
CTETRA       766       1       1    1030    1034       2     143    1149+
+            364     140     141      60
CTETRA       767       1    1027    1029       4    2205    1162      68+
+            153     868     145     144
CTETRA       768       1    2248    2249    1721    2198    2275     890+
+            793    2164    2161    1931
CTETRA       769       1      38    2615    2349    2614     409    1645+
+            398     378    2301    2357
CTETRA       770       1       6    1686    1689    1688      74    1830+
+            459     585    1826    1823
CTETRA       771       1       5    2364    2501    1041     586     588+
+            449     452    1192     453
CTETRA       772       1       7    1673    1674    1676      87    1775+
+            939     557    1774    1773
CTETRA       773       1      28    1033    1032    1692     921    1117+
+            620     505      63     783
CTETRA       774       1      14    1011      28    1037     633     621+
+            259     626    1121     629
CTETRA       775       1      48    1068    2417    1070     965    1321+
+            679     681    1318    1320
CTETRA       776       1    2281    2478    2282    1594    1551    1549+
+           2283    1623     799    1622
CTETRA       777       1      21    1702    1065      26     248     447+
+            252     244     239     251
CTETRA       778       1      48    1070    2417    2619     681    1320+
+            679     677    1322    2422
CTETRA       779       1      40    1721    1722    1709     657    1930+
+            415     492    1943    1940
CTETRA       780       1      44    1084    1083    1015     948    1382+
+            915     643    1381    1383
CTETRA       781       1    1089    1708    1088    1718     796     696+
+           1417     864    1911     494
CTETRA       782       1    2362      32    1749    1024     649     355+
+            108    1168     592     593
CTETRA       783       1    2361    1025    1024      11    1175    1174+
+           1173     546     112     934
CTETRA       784       1      12      15    1754    1061     134     133+
+            132     137     962     543
CTETRA       785       1    2627    2509    2374      27     527     851+
+           2387     526     255     525
CTETRA       786       1    2278    1598    2612    2486    1630    1631+
+           2288    1565     831    1566
CTETRA       787       1      24    1065    1068    1071     693    1325+
+            228     227    1326    1328
CTETRA       788       1    1697    1736    1737      24    2034    2036+
+           2031     225     222     223
CTETRA       789       1      26      24    1065    2416     236     693+
+            251     233     241    1299
CTETRA       790       1      34    2590    2392    2393     326    1662+
+            966     335    1659    2399
CTETRA       791       1      35    1077    1014    2393     333    1350+
+            737     334    1354    1108
CTETRA       792       1      35    2373    1074    1724     735    1340+
+            537     533     853     539
CTETRA       793       1    2236    2210    2237    1743    2188    2185+
+           2265     714    2132     818
CTETRA       794       1      31    1745    1744    1760     300    2097+
+            652     388    2130    2131
CTETRA       795       1       6    1041    1040    1047     451    1180+
+            455     454    1209    1208
CTETRA       796       1    2250    1731    2196    2251     860    1971+
+           2160    2271     900    2157
CTETRA       797       1    1044    2579    2363    2351     933     940+
+           1188    1189    1648    1185
CTETRA       798       1      24    1697      47    1698     225     688+
+            690     886    2032     703
CTETRA       799       1      30    1749    2580    2630     349    2067+
+            354     285    2066    1815
CTETRA       800       1      32    2362    1023    1024     649    1165+
+            599     592    1168    1169
CTETRA       801       1       8    2630    2629    2511      93    2314+
+             96     105    2512    1474
CTETRA       802       1    2511    2361    2362    1024     530    2382+
+            107     531    1173    1168
CTETRA       803       1    2630    2511       8    1749    2512     105+
+             93    2066    2068     106
CTETRA       804       1      37    1052    1012    1013     958    1227+
+            371     372    1229    1228
CTETRA       805       1      37    1052    1013    1053     958    1229+
+            372     906    1234    1233
CTETRA       806       1       7    1048    2208    1049      75      86+
+             85      76    1226     904
CTETRA       807       1    1668      39      38    1012     397     379+
+            383     381     395     374
CTETRA       808       1      37    2209    1676    1675     936    1780+
+            564     401    1767    1772
CTETRA       809       1      12    1757    1758    1754     122    2113+
+            545     132    2107    2112
CTETRA       810       1      39    1012    1058    1013     395    1257+
+            394     377    1228    1255
CTETRA       811       1      39    1058    2614    1013     394    1256+
+            376     377    1255    1249
CTETRA       812       1    1012      37    1675    2209     371     401+
+            380     874     936    1767
CTETRA       813       1      11    1063    2413    1026     113    1282+
+            541     547    1287    1248
CTETRA       814       1    1065    1704    1702      21     446    2011+
+            447     252     257     248
CTETRA       815       1      27    1738    1701    1700     519    2043+
+            889     888    2044    2015
CTETRA       816       1      27    1739    1700    1699     268    2057+
+            888     270    2060    2010
CTETRA       817       1      27    2627    1066    1067     526    1301+
+            516     272    1309    1306
CTETRA       818       1      13    1064    1750    1020     126     129+
+            128     611    1295     797
CTETRA       819       1      19    2404    1087    2403     695    1401+
+            484     943    2411    1403
CTETRA       820       1      25    2198    1706    1721     231    1933+
+            232     662    1931    1928
CTETRA       821       1    2619    2618    2599      48    2303    2608+
+           2139     677     704     678
CTETRA       822       1    2212    1020    2610    1750     791     700+
+           2232    2090     797    2088
CTETRA       823       1      47    1068      48    1069     689     965+
+            691     702    1316     682
CTETRA       824       1      43    2406    1075    1076     955    1342+
+            463     462    1335    1343
CTETRA       825       1      43    1729    1730    1076     464    1981+
+            967     462     465     420
CTETRA       826       1    2603      13    2413      11     609     540+
+           2146     759     118     541
CTETRA       827       1      19    1081    1088    1082     173    1410+
+            487     316    1386    1414
CTETRA       828       1    2250    1732    1076    2249     862     419+
+           1363    2272     945    1362
CTETRA       829       1    1011    1691    1666    1667     634    1850+
+            569     572    1853    1852
CTETRA       830       1    1715    1016    2201    2202     789     815+
+           1902    1900     787    2221
CTETRA       831       1      46    1717    2317    1667     582    1898+
+            581     571    1896    1849
CTETRA       832       1    1061      15    1755    1056     962     961+
+            591    1279     602     590
CTETRA       833       1      38    1760    1675    1669     387    1763+
+            382     403    2129    1771
CTETRA       834       1    2524    2438    2309    2628    1496     101+
+            968    2539    1497     827
CTETRA       835       1      45    2350    1053      37     565    1237+
+            905     562     551     906
CTETRA       836       1    2426    2507    2508    1598     763    2516+
+            922     847     946     720
CTETRA       837       1      24      47    2599    1698     690     692+
+            243     886     703    2042
CTETRA       838       1      35    1727    1723    1724     877    1982+
+            534     533    1984    1983
CTETRA       839       1    2427    1592    2535    2534     926     712+
+           1518    1519     726    2550
CTETRA       840       1    2195      34    2252    1073     885     324+
+           2155     856     322    1373
CTETRA       841       1    1739    1740      29    1741    2052     969+
+            266    2051    2049     951
CTETRA       842       1    2620    1687    1047    1685    1829     920+
+            740    1834    1836     739
CTETRA       843       1    1688    2579    2501    2364    1816    1814+
+           1818     587     732     588
CTETRA       844       1      37    2349    1053    1013     399    1236+
+            906     372    1235    1233
CTETRA       845       1      45    1674    2578    1676     938    1777+
+            566     558    1773    1776
CTETRA       846       1    2289    2536    1593    2290    1586     706+
+           1636    2299    1574    1637
CTETRA       847       1    2435      10    2434    1589     109     111+
+           2443     826     674     970
CTETRA       848       1       9    2508    2509    2457     719    2515+
+            193     195    1480    1477
CTETRA       849       1    1703    2508    2374    2588    1954     721+
+            523    1953    1951     522
CTETRA       850       1    2425    2424    1593    2374    2453     185+
+            848    1448    1447     186
CTETRA       851       1    2363      10    2435    1589     117     109+
+           1425     839     674     826
CTETRA       852       1      35    2374    2394    1014     736    1110+
+            971     737    1112    1109
CTETRA       853       1      35    2508    2589    2394     532    1952+
+            535     971     972    1657
CTETRA       854       1    2589    2394    2508    2588    1657     972+
+           1952    2594    1658    1951
CTETRA       855       1      27    1703    1699    1700     524    2004+
+            270     888    2009    2010
CTETRA       856       1    2588    2508    2374    2394    1951     721+
+            522    1658     972    1110
CTETRA       857       1    2588    1699      27    1703    2003     270+
+            275    1953    2004     524
CTETRA       858       1    1598    2458    2508    2457     894    1479+
+            720     835    2469    1480
CTETRA       859       1    1733    1735    1734      29    2017    2019+
+           2018     973     974     975
CTETRA       860       1    1589      10    2434    2528     674     111+
+            970     823     976    1504
CTETRA       861       1    2507    1598    2459    2458     946     977+
+           1481    1482     894    2470
CTETRA       862       1      35    2508    1723    2589     532    2001+
+            534     535    1952    1959
CTETRA       863       1    2580      32    2581    1749     357     978+
+           2586    2067     355    2099
CTETRA       864       1      30      32    2362    1023     356     649+
+            648     350     599    1165
CTETRA       865       1      30    2362    2363    1023     648    2380+
+            288     350    1165    1164
CTETRA       866       1    2434    2435    1589    2527    2443     826+
+            970    1505    1502     820
CTETRA       867       1      32      30    2353    1057     356     353+
+            358     359     351    1250
CTETRA       868       1      36      32      31    1745     360     297+
+            406     407     301     300
CTETRA       869       1      31    1743    1761    1744     291    2135+
+            386     652    2103    2137
CTETRA       870       1    1059      36    1057      31     391     361+
+           1254     880     406     653
CTETRA       871       1    2434    2527    1589    2528    1505     820+
+            970    1504    2543     823
CTETRA       872       1    2578      45    2351    1674     566     550+
+           1649    1777     938     979
CTETRA       873       1    2351    1674    2579    2578     979    1784+
+           1648    1649    1777    2584
CTETRA       874       1      45    1043    1053    2350     549    1238+
+            905     565    1197    1237
CTETRA       875       1      45    2578    2350    2577     566    1646+
+            565     734    2583    1647
CTETRA       876       1      29    1735    1734    2592     974    2019+
+            975     282    2023    2024
CTETRA       877       1    2391    2591    2392    1079    1664    1661+
+           2401    1370     980    1371
CTETRA       878       1    1735      34    2591    1079     470     981+
+           2025     471     325     980
CTETRA       879       1      29    1019    2391    2616     273    1369+
+            837     284    1308    2400
CTETRA       880       1    2488    2487    2612    2310    2490    1560+
+           1559     766     765    2313
CTETRA       881       1    2558    2366    2502    1681     964     669+
+           1786    1787     924    1785
CTETRA       882       1    1594    2629    2631    2455      97    2315+
+            834     982    2466    1451
CTETRA       883       1    2558    2559    2502    2342    2561    1819+
+           1786    1530    1527     983
CTETRA       884       1    1040    2342    2366    2502    1183    1137+
+           1182     666     983     669
CTETRA       885       1    2366    1590    2432    2433     841     909+
+           1431    1432     984    2445
CTETRA       886       1       8    2456    2455    2310     985    2467+
+            986     987     199     988
CTETRA       887       1    2502    2342    2366    2558     983    1137+
+            669    1786    1530     964
CTETRA       888       1      47    1753    1752    1751     738    2083+
+            605     608    2086    2091
CTETRA       889       1      42    2533    1591    1592     762     438+
+            896     895     989    1611
CTETRA       890       1       3      23    2503    1682     510     221+
+            508     507     514    1790
CTETRA       891       1      22    2502    2503    2463     668    2521+
+            219     672    1492    1489
CTETRA       892       1      23    1679    1683    1682     264    1803+
+            343     514    1805    1796
CTETRA       893       1    1086    1018    1087      40    1397    1400+
+           1402     654     660     485
CTETRA       894       1    1732      25    1706    1730     230     232+
+           1976    1977     421    1978
CTETRA       895       1    2320    1714    2327      17    1888     727+
+           1000     163     639     161
CTETRA       896       1      44    2369    1085    1084     646    1390+
+            942     948    1392    1393
CTETRA       897       1      44    1084    1015    2328     948    1381+
+            643     949    1379    1101
CTETRA       898       1    1082      20    1085      44     315     941+
+           1391     913     640     942
CTETRA       899       1      44    2319    2320    2327     641    2322+
+            952     728    1003    1000
CTETRA       900       1      44    2319    1715    1711     641    1925+
+            644     950    1885    1926
CTETRA       901       1      44    1711    2320    2319     950    1884+
+            952     641    1885    2322
CTETRA       902       1      11    1747    2602    1746     131    2076+
+            754     863    2077    2071
CTETRA       903       1    1074    2372      43    2507    1345     472+
+            473     884     481     478
CTETRA       904       1      11    1757    1746    1759     119    2111+
+            863     613    2123    2124
CTETRA       905       1    2254    1736    1071    1066     780     803+
+           1330    1333     806    1327
CTETRA       906       1       5    1674    1688    1044     957    1817+
+            584     552     959     589
CTETRA       907       1    1069      47    1752      13     702     605+
+            687     340     604     606
CTETRA       908       1    1592    2426    1598      42     897     847+
+           1613     895     731     947
CTETRA       909       1      13    2413    1021    2619     540    1281+
+            341     701    2420    1284
CTETRA       910       1    2338    1045    2555    2620    1205     753+
+           1535    1537     742    2565
CTETRA       911       1      11    2602    2414    2603     754    2144+
+            756     759    2607    2147
CTETRA       912       1    1685    1048    1047    1045     878    1223+
+            739     741    1222    1213
CTETRA       913       1    2557       4    2556    2340     157     932+
+           2563    1531     156    1534
CTETRA       914       1    2463      22    2502    1595     672     668+
+           1492     844     346     747
CTETRA       915       1       8    2435    1589    2363     764     826+
+            825      92    1425     839
CTETRA       916       1       7    1672    1673    1676      79    1783+
+             87     557    1782    1774
CTETRA       917       1       6    1040    2621    1047     455    1211+
+            918     454    1208    1210
CTETRA       918       1      45       5    1044    1674     553     552+
+            548     938     957     959
CTETRA       919       1    2433    1590    2528      10     984     990+
+           1507     855     991     976
CTETRA       920       1    2484    1598    2459    1597     903     977+
+           1458     828    1612     829
CTETRA       921       1    2342    2559    2502    1040    1527    1819+
+            983    1183     919     666
CTETRA       922       1    2502    1689    1040    2559    1820     667+
+            666    1819    1821     919
CTETRA       923       1    1592    2426    2536    1593     897    1520+
+            711    1615     846     706
CTETRA       924       1      45    1674       7       5     938     939+
+            556     553     957      82
CTETRA       925       1    1040    1689       6    2559     667     459+
+            455     919    1821     917
CTETRA       926       1    2559    1689       6    2620    1821     459+
+            917    2560    1827     461
CTETRA       927       1    1064    1055    1061    1758    1290    1280+
+           1291     614     785     544
CTETRA       928       1    1685    1696    1045    2555    1873     751+
+            741    1835    1875     753
CTETRA       929       1      24    1737    1702    1701     223    2037+
+            240     224    2040    2013
CTETRA       930       1       6    1047    2620    1687     454     740+
+            461     460     920    1829
CTETRA       931       1      31    1761    1760    1744     386    2136+
+            388     652    2137    2131
CTETRA       932       1    1040    2342    2559    2621    1183    1527+
+            919    1211    2348    1528
CTETRA       933       1    1597    1598    2459      42    1612     977+
+            829     441     947     883
CTETRA       934       1       5    1041    1051    1042     452    1218+
+             69     555    1193    1215
CTETRA       935       1    2363    2579    2364    2630     940     732+
+           2384     287    1813     733
CTETRA       936       1    1595    2366      10    1590     748     745+
+            676    1602     841     991
CTETRA       937       1      44    2328    2319    2327     949    1002+
+            641     728    2333    1003
CTETRA       938       1    2318    1015    2328    2319     577    1101+
+           1005    2323     642    1002
CTETRA       939       1      19    1718    1710    1713     303    1913+
+            490     168    1908    1906
CTETRA       940       1    1719    1089    1083    1082     866    1413+
+            914     911    1412    1395
CTETRA       941       1    1086    1721      25      41     658     662+
+            698     655     656     423
CTETRA       942       1    1598    1592      42    1597    1613     895+
+            947    1612    1610     441
CTETRA       943       1    2247    1708    2199    2248     777    1941+
+           2166    2276     794    2163
CTETRA       944       1      44    2328    1015    2319     949    1101+
+            643     641    1002     642
CTETRA       945       1      24    1068      48      47     228     965+
+            684     690     689     691
CTETRA       946       1    2484    1597    2279    2278     828    1628+
+           1562    1563    1629    2287
CTETRA       947       1       3    1682    1678    1679     507    1806+
+            368     506    1805    1807
CTETRA       948       1    1681    2366    2502    2503     924     669+
+           1785    1788     671    2521
CTETRA       949       1      22      17    2369    2504     210     213+
+            212     207     218     716
CTETRA       950       1      14      17    1039      23     774     347+
+            625     261     216     348
CTETRA       951       1    1683    1684      23      17    1798     344+
+            343     729     730     216
CTETRA       952       1      14    1039      17    2331     625     347+
+            774     635    1128     776
CTETRA       953       1      24    2417      48    1068     242     679+
+            684     228    1321     965
CTETRA       954       1      27    1066    1019    1067     516    1307+
+            274     272    1306    1305
CTETRA       955       1    1733    1741    1019      29    2048     802+
+            992     973     951     273
CTETRA       956       1      24    2416    1068    1065     241    1324+
+            228     693    1299    1325
CTETRA       957       1    1066    1736    1739    1741     806    2054+
+            520     805    2053    2051
CTETRA       958       1    2484    2279    1597    2483    1562    1628+
+            828    2494    1558     956
CTETRA       959       1       9    2626    2438    2360     182    2439+
+            100     202    1420    1419
CTETRA       960       1      14    1680    1693    2316     123    1845+
+            993     125    1801    1843
CTETRA       961       1      14    2331      17    2316     635     776+
+            774     125    1008     775
CTETRA       962       1      14    1680    1691    1693     123    1846+
+            623     993    1845    1847
CTETRA       963       1      14    2330    1037    2331     631    1119+
+            626     635    2336    1120
CTETRA       964       1      23    1037    1038    1039     627    1131+
+            511     348    1130    1132
CTETRA       965       1      16    2555    2339    2338     930    1536+
+            502     811    1535    2346
CTETRA       966       1    2480    1595    2281    2280     417    1624+
+           1553    1554    1625    2284
CTETRA       967       1    1031       1    2340       4     363     154+
+           1145     907     139     156
CTETRA       968       1      18    2566    1713    2567     175    1879+
+            167     166    2575    1905
CTETRA       969       1      18    1080    2371    2402     304    1378+
+            174     468    1377    1376
CTETRA       970       1    2461    1597    2482    2483     723     430+
+           1462    1463     956    2495
CTETRA       971       1    2506      43    2624    2371     814     476+
+           1880     177     482     467
CTETRA       972       1    2402    2625    2371    2624    2410    1106+
+           1376    1548    2306     467
CTETRA       973       1      43    2371    2372    2625     482    2376+
+            472     474    1106    1105
CTETRA       974       1      17    2316    2622    1684     775    2326+
+            339     730    1799    1793
CTETRA       975       1    1597    2483    2460    2484     956    1460+
+            444     828    2494    1461
CTETRA       976       1       1    2341    2340    2557     994    2344+
+            154     155    1532    1531
CTETRA       977       1       1    1681    2558    1677     365    1787+
+            963      49    1809    1808
CTETRA       978       1    1076      43    2406    1730     462     955+
+           1335     420     967     995
CTETRA       979       1    2485    1598    2459    2484     830     977+
+           1459    2493     903    1458
CTETRA       980       1      22    2369    1591    1596     212     436+
+            616     204     887    1606
CTETRA       981       1    2406    2570    2569    1730    1538    2572+
+           1541     995    1990    1989
CTETRA       982       1       8    2361    2511    2510     870     530+
+            105     200     757    2513
CTETRA       983       1    2373    1074    2507    2372    1340     884+
+            854    2388    1345     481
CTETRA       984       1      42    2371      43    2506     767     482+
+            479     845     177     814
CTETRA       985       1      43    2624    2570    1726     476    2571+
+            475     770    1996    1993
CTETRA       986       1    1730      43    2406    2570     967     955+
+            995    1990     475    1538
CTETRA       987       1      18    2402    2566    2403     468    1546+
+            175     944    2412    1547
CTETRA       988       1      43    2406    2570    2625     955    1538+
+            475     474    2407    1539
CTETRA       989       1    1598    2484    2278    1597     903    1563+
+           1630    1612     828    1629
CTETRA       990       1    2433      10    2366    1590     855     745+
+           1432     984     991     841
CTETRA       991       1    2402    2371    2566    2624    1376     176+
+           1546    1548     467    2576
CTETRA       992       1    1076    1730    2406    2405     420     995+
+           1335    1334     931    2408
CTETRA       993       1      11    2413    2603    2414     541    2146+
+            759     756    2419    2147
CTETRA       994       1      11    2414    1026    2413     756    1177+
+            547     541    2419    1248
CTETRA       995       1    2415    2510    2361    2360     758     757+
+           1170    1172     201    2381
CTETRA       996       1      10    1589    1595    1590     674    1601+
+            676     991    1603    1602
CTETRA       997       1       8    2455    2511    2629     986    1473+
+            105      96    2466    1474
CTETRA       998       1    2309    2613    2525    2524    2311    1582+
+            902     968    1581    2540
CTETRA       999       1    2361       8    2437    2438     870      98+
+           1421    1422     104    2440
CTETRA      1000       1    1598    2612    2486    2310    1631    1566+
+            831    1632    2313     832
CTETRA      1001       1      17    1714    2327    2369     639     727+
+            161     213     645    1104
CTETRA      1002       1      44    2327    2369    1084     728    1104+
+            646     948    1380    1392
CTETRA      1003       1    1731      34    1670    1073     319     850+
+           1970     859     322     857
CTETRA      1004       1      46    2317    2329    2330     581    1007+
+            580     578    1006    2335
CTETRA      1005       1      46    1015    1016    2329     575    1098+
+            786     580    1100    1093
CTETRA      1006       1      44    1719    1711    1715     912    1917+
+            950     644    1927    1926
CTETRA      1007       1      17    2320    2504    2622     163    1794+
+            218     339    2321    1791
CTETRA      1008       1      17    2622    2331    2623     339    1010+
+            776     162    2305    2337
CTETRA      1009       1    2293    2292    1590    2528    2294    1642+
+           1643    1567    1569     990
CTETRA      1010       1    2415    2602    2510    2601    2145    1947+
+            758    2142    2604    1944
CTETRA      1011       1      11    1747    1746    1757     131    2077+
+            863     119    2110    2111
CTETRA      1012       1       8    2455    2456    2510     986    2467+
+            985     200    1476    1475
CTETRA      1013       1      29    1019    1733    1079     273     992+
+            973     838    1367     996
CTETRA      1014       1      46    1666    1716    1667     570    1892+
+            908     571    1852    1893
CTETRA      1015       1      21    2627    2360    1065     253    2386+
+            247     252    1300    1298
CTETRA      1016       1      26    1705    2601    2510     249    1946+
+            234     245    1945    1944
CTETRA      1017       1       9    2457    1598    2508     195     835+
+            717     719    1480     720
CTETRA      1018       1       8    2511    2361    2362     105     530+
+            870      90     107    2382
CTETRA      1019       1       9    2456    2457    2509     196    2468+
+            195     193    1478    1477
CTETRA      1020       1    2414    2415    2602    2361    2418    2145+
+           2144    1171    1170     755
CTETRA      1021       1    2510      26    2415    2601     245     235+
+            758    1944     234    2142
CTETRA      1022       1    2198    2249      25    1732    2161     891+
+            231    1974     945     230
CTETRA      1023       1      46    1717    1716    1715     582    1897+
+            908     573    1903    1901
CTETRA      1024       1      46    1015    1715    1016     575     574+
+            573     786    1098     789
CTETRA      1025       1    2204    2243    1029    1032    2173    1152+
+            869     782    1147    1151
CTETRA      1026       1      46    1667    1716    1717     571    1893+
+            908     582    1896    1897
CTETRA      1027       1      46    2318    2329    2317     576    1004+
+            580     581    2324    1007
CTETRA      1028       1      26      21    1705    2510     244     250+
+            249     245     191    1945
CTETRA      1029       1      34    1671    2591    2590     329    2016+
+            981     326    1961    2596
CTETRA      1030       1      34    2393      35    2590     335     334+
+            328     326    1659     327
CTETRA      1031       1    1731    1729    1075    1076    1969     466+
+            872     861     465    1343
CTETRA      1032       1    2253    1733    1019    1079     800     992+
+           1332    1366     996    1367
CTETRA      1033       1      29    1019    2616    1067     273    1308+
+            284     271    1305    1303
CTETRA      1034       1      26    1065    2415    2416     251    1297+
+            235     233    1299    2421
CTETRA      1035       1      27    1701    1704    1700     889    2012+
+            258     888    2015    2014
CTETRA      1036       1      29    1067    2616    2395     271    1303+
+            284     278    1304    2398
CTETRA      1037       1      29    1733    1740    1734     973    2050+
+            969     975    2018    2056
CTETRA      1038       1    2253    1735    1733    1079     801    2017+
+            800    1366     471     996
CTETRA      1039       1      29    2617    1734    1742     283    2064+
+            975     997    2062    2063
CTETRA      1040       1      29    1734    1740    1742     975    2056+
+            969     997    2063    2059
CTETRA      1041       1    2580    2363    2630    2579     651     287+
+           1815    2585     940    1813
CTETRA      1042       1      30    2363    2630    2580     288     287+
+            285     354     651    1815
CTETRA      1043       1    2438    2360    2361       8    1419    2381+
+           1422     104     203     870
CTETRA      1044       1    1674      45    2351    1044     938     550+
+            979     959     548    1189
CTETRA      1045       1    2511    1024    1748    1747     531     596+
+           2069    2073     529    2074
CTETRA      1046       1    2580    2579    2352    2363    2585    1651+
+           1650     651     940    1184
CTETRA      1047       1      36      31    1059      39     406     880+
+            391     389     960     390
CTETRA      1048       1    1748    1024    1749      15     596     593+
+           2070     136     594     595
CTETRA      1049       1      19    1718    1709    1710     303    1910+
+            491     490    1913    1914
CTETRA      1050       1      45    1050    1043    1042     567    1217+
+            549     554    1214    1196
CTETRA      1051       1      18      20      33    2370     180     310+
+            313     306     305     928
CTETRA      1052       1      19    1713    1710    2567     168    1906+
+            490     165    1905    1907
CTETRA      1053       1      29    2588    2395    2617     277    1655+
+            278     283    2593    1656
CTETRA      1054       1      29    2617    1699    2588     283    2005+
+            267     277    2593    2003
CTETRA      1055       1    2429    1591    2430    2369     434     615+
+           2448    1437     436    1438
CTETRA      1056       1      10    1595    2464    2502     676     159+
+            893     746     747    1491
CTETRA      1057       1       1    2558    2366    2341     963     964+
+            953     994    1529    1134
CTETRA      1058       1       8    2309    1589    2436     102    1616+
+            825      91     901     824
CTETRA      1059       1       8       9    2456    2310     103     196+
+            985     987     197     199
CTETRA      1060       1    1590    2433    2529    2432     984    1506+
+            822     909    2445    1509
CTETRA      1061       1    2601    2416    2600      26    2143    2140+
+           2605     234     233     238
CTETRA      1062       1    2537    2424    1593    2425    1525     185+
+            707    1522    2453     848
CTETRA      1063       1      35    2394    2374    2508     971    1110+
+            736     532     972     721
CTETRA      1064       1    2435    1589    2526    2436     826     457+
+           1503    2442     824    1500
CTETRA      1065       1    1598      42    2507    2459     947     477+
+            946     977     883    1481
CTETRA      1066       1       9    2508    2374    2509     719     721+
+            187     193    2515     851
CTETRA      1067       1      27    1066    1701    1738     516     809+
+            889     519     518    2043
CTETRA      1068       1      25    2568    2569    2405     281    2573+
+            772     426    1543    1540
CTETRA      1069       1       9    2438    2626    2628     100    2439+
+            182     184    1497    2308
CTETRA      1070       1      16    2556    2555    1696     998    2564+
+            930     749    1876    1875
CTETRA      1071       1    2556       4    2339    2340     932     501+
+           1533    1534     156    2345
CTETRA      1072       1      46    1666    1011    1016     570     569+
+            568     786     761    1091
CTETRA      1073       1    2201    2245    1016    2246    2170    1096+
+            815    2167    2257    1097
CTETRA      1074       1      10    2464    2465    2501     893    2476+
+            882     769    1494    1493
CTETRA      1075       1    1045    1047    2620    2338    1213     740+
+            742    1205    1212    1537
CTETRA      1076       1      16    2556    1696    1690     998    1876+
+            749     149    1859    1874
CTETRA      1077       1       6    2621    2620    1047     918    2304+
+            461     454    1210     740
CTETRA      1078       1      16    2339    2555    2556     502    1536+
+            930     998    1533    2564
CTETRA      1079       1    2309    2437    2525    2436     876    1498+
+            902     901    2441    1501
CTETRA      1080       1      25    1707    2569    2568     280    1957+
+            772     281    1938    2573
CTETRA      1081       1      26    1705    2600    2601     249    2006+
+            238     234    1946    2605
CTETRA      1082       1    2437    2524    2438    2309    1499    1496+
+           2440     876     968     101
CTETRA      1083       1    2309    2437    2524    2525     876    1499+
+            968     902    1498    2540
CTETRA      1084       1    2532    1591    2533    2291     725     438+
+           2548    1576    1640    1577
CTETRA      1085       1       8    2436    2437    2309      91    2441+
+             98     102     901     876
CTETRA      1086       1       9    2309    2438    2628      99     101+
+            100     184     827    1497
CTETRA      1087       1      21    1705    1704    1702     250    1950+
+            257     248    2007    2011
CTETRA      1088       1    2425    2508    2373    2374     927     852+
+           1445    1448     721    2377
CTETRA      1089       1    2537    2289    1593    2538    1588    1636+
+            707    2553    1587     709
CTETRA      1090       1      24    1071    1701    1065     227     810+
+            224     693    1326     445
CTETRA      1091       1      29    2616    2617    2395     284    2302+
+            283     278    2398    1656
CTETRA      1092       1      22    2503    2504    2462     219    2520+
+            207     206    1490    1487
CTETRA      1093       1      18    2403    2566    2567     944    1547+
+            175     166    1544    2575
CTETRA      1094       1       8    1594    1589    2309      95    1599+
+            825     102    1620    1616
CTETRA      1095       1      30       8    2363    2362     286      92+
+            288     648      90    2380
CTETRA      1096       1    2289    2309    2628    2613    1635     827+
+           1585    2298    2311    1583
CTETRA      1097       1    2250    2196    1731    2197    2160    1971+
+            860    2159    2225    1973
CTETRA      1098       1    2196    2195    1073    1670    2228     856+
+            858    1972    2026     857
CTETRA      1099       1    2629    1594    2465    2630      97     892+
+           2477    2314      94    1495
CTETRA      1100       1       8    2309       9    2310     102      99+
+            103     987    2312     197
CTETRA      1101       1    2310    2488    2282    2612     766    1561+
+           1621    2313    1559    2286
CTETRA      1102       1    2432    2530    1590      22    1508     821+
+            909     910     898     345
CTETRA      1103       1    2329    1015    2328    2318    1100    1101+
+           2334    1004     577    1005
CTETRA      1104       1      33    2371    2370    2428     773    2389+
+            928     439    1442    1439
CTETRA      1105       1    2531    2431      22    2530    1510     925+
+            899    2546    1511     898
CTETRA      1106       1    1590    2432    2529    2530     909    1509+
+            822     821    1508    2545
CTETRA      1107       1      35    2589    2393    2394     535    1660+
+            334     971    1657    2396
CTETRA      1108       1    2310    1594    2282    2488    1619    1622+
+           1621     766     833    1561
CTETRA      1109       1       8    2630    1589    1594      93     840+
+            825      95      94    1599
CTETRA      1110       1    1749    1024    2511    2362     593     531+
+           2068     108    1168     107
CTETRA      1111       1      43    1726    1725    2624     770    1995+
+            483     476    1996    1998
CTETRA      1112       1      16       4    1046    1028     148     147+
+            146     503     152    1199
CTETRA      1113       1      20      33    2505    2506     310     312+
+            309     179     314    2518
CTETRA      1114       1      33    2370    2429    2428     928    1440+
+            435     439    1439    2449
CTETRA      1115       1      40    1710    1709    1722     489    1914+
+            492     415    1939    1940
CTETRA      1116       1    2613    1589    2526    2293    1617     457+
+           1584    2297    1618    1580
CTETRA      1117       1    2613    2309    2628    2524    2311     827+
+           1583    1581     968    2539
CTETRA      1118       1    2508    1598    2507    2458     720     946+
+           2516    1479     894    1482
CTETRA      1119       1    2435    2526    1589    2527    1503     457+
+            826    1502    2542     820
CTETRA      1120       1      36    2353    2614    1059     362    2358+
+            392     391    1253    1258
CTETRA      1121       1      14    1667    2317    1693     630    1849+
+            632     993    1848    1844
CTETRA      1122       1      20    1713    2506    2505     181    1878+
+            179     309    1881    2518
CTETRA      1123       1    2353      32      36    2581     358     360+
+            362    1652     978     999
CTETRA      1124       1      44    1715    1015    1719     644     574+
+            643     912    1927     867
CTETRA      1125       1      40    1710    2568    2567     489    1936+
+            412     500    1907    2574
CTETRA      1126       1      36    2353    2581    2614     362    1652+
+            999     392    2358    1654
CTETRA      1127       1      10    1590    2528    1589     991     990+
+            976     674    1603     823
CTETRA      1128       1      36    2615    2614    2581     410    2301+
+            392     999    2587    1654
CTETRA      1129       1    2507    1074    1725      43     884     812+
+           1999     478     473     483
CTETRA      1130       1    1721    2249      25    2198     890     891+
+            662    1931    2161     231
CTETRA      1131       1    1670      34    2195    1073     850     885+
+           2026     857     322     856
CTETRA      1132       1      34    1073    1072    1079     322    1348+
+            536     325    1374    1372
CTETRA      1133       1      29    2617    2592    1734     283    2598+
+            282     975    2064    2024
CTETRA      1134       1    2405      25    1076    1730     426     418+
+           1334     931     421     420
CTETRA      1135       1      35    2508    2374    2373     532     721+
+            736     735     852    2377
CTETRA      1136       1      35    1671    2590    1727     330    1961+
+            327     877    1960    1962
CTETRA      1137       1    1596    2463    2462    2481     673    2474+
+            205     842    1467    1464
CTETRA      1138       1      38    1668    1675    1760     383    1762+
+            382     387    1764    1763
CTETRA      1139       1    1596      33    1597    2461     433     431+
+           1608     722     647     723
CTETRA      1140       1    1594    2455    2488    2310     982    1450+
+            833    1619     988     766
CTETRA      1141       1    2455    2310    2456    2488     988     199+
+           2467    1450     766    1453
CTETRA      1142       1      36    2581    1745    2615     999    2100+
+            407     410    2587    2127
CTETRA      1143       1      34    2591    2392    2590     981    1661+
+            966     326    2596    1662
CTETRA      1144       1      11    2361    1026    2414     546    1176+
+            547     756    1171    1177
CTETRA      1145       1    2487    2310    2486    2612     765     832+
+           2491    1560    2313    1566
CTETRA      1146       1      36      32    1745    2581     360     301+
+            407     999     978    2100
CTETRA      1147       1      32    1749    1745    2581     355    2098+
+            301     978    2099    2100
CTETRA      1148       1    2428      42    2533      33     636     762+
+           1517     439     440     437
CTETRA      1149       1    2429    2430    1591    2532    2448     615+
+            434    1515    1512     725
CTETRA      1150       1    2532    2430    1591    2531    1512     615+
+            725    2547    1513     724
CTETRA      1151       1    2481    1596    2482    2462     842     429+
+           2496    1464     205    1465
CTETRA      1152       1    1595    2465    2479    2478     160    1471+
+            158     798    1470    2499
CTETRA      1153       1    1590    2292    2529    2528    1642    1572+
+            822     990    1569    2544
CTETRA      1154       1       4    1690    1694    1695     151    1863+
+             65      67    1860    1864
CTETRA      1155       1      33    1596    1591    2369     433    1606+
+            432     311     887     436
CTETRA      1156       1      42    2460    2459    1597     443    2471+
+            883     441     444     829
CTETRA      1157       1      22    2431    2430    2368     925    2447+
+            617     209    1436    1435
CTETRA      1158       1    2631    2455    2488    1594    1451    1450+
+           2489     834     982     833
CTETRA      1159       1    2631    1594    2282    2478     834    1622+
+           1550    2500     799    1549
CTETRA      1160       1       8    2629    1594    2455      96      97+
+             95     986    2466     982
CTETRA      1161       1    1594    2465    2630      10     892    1495+
+             94     675     882     881
CTETRA      1162       1       8       9    2510    2456     103     192+
+            200     985     196    1475
CTETRA      1163       1      10    2366    2365    2433     745    2383+
+            708     855    1432    1429
CTETRA      1164       1    2366    2341    2558    2342    1134    1529+
+            964    1137    2343    1530
CTETRA      1165       1    1596    2480    2463    2481     843    1466+
+            673     842    2497    1467
CTETRA      1166       1    1590    2433    2528    2529     984    1507+
+            990     822    1506    2544
CTETRA      1167       1       8    1594    2309    2310      95    1620+
+            102     987    1619    2312
CTETRA      1168       1      42    2428    2371      33     636    1442+
+            767     440     439     773
CTETRA      1169       1    2406    1730    2569    2405     995    1989+
+           1541    2408     931    1540
CTETRA      1170       1    1598    2457    2486    2458     835    1454+
+            831     894    2469    1457
CTETRA      1171       1      33    2533    1591      42     437     438+
+            432     440     762     896
CTETRA      1172       1    2458    1598    2459    2485     894     977+
+           2470    1456     830    1459
CTETRA      1173       1    2478    2629    2631    1594    1472    2315+
+           2500     799      97     834
CTETRA      1174       1    2309    2613    2526    2525    2311    1584+
+            458     902    1582    2541
CTETRA      1175       1      26    1705    1702    2600     249    2007+
+            239     238    2006    2008
CTETRA      1176       1      36      38    1760      31     411     387+
+            408     406     385     388
CTETRA      1177       1    1596    2461    2462    2504     722    2473+
+            205     208    1488    1487
CTETRA      1178       1    1760      36    1745    2615     408     407+
+           2130    2128     410    2127
CTETRA      1179       1    1067    2374    2588      27    1310     522+
+            276     272     525     275
CTETRA      1180       1      33    2371      42    2506     773     767+
+            440     314     177     845
CTETRA      1181       1    2530    2431      22    2432    1511     925+
+            898    1508    2446     910
CTETRA      1182       1      27    1739    1738    1700     268    2055+
+            519     888    2057    2044
CTETRA      1183       1    1749       8      30    2362     106     286+
+            349     108      90     648
CTETRA      1184       1      19    1080    2403    1087     171    1406+
+            943     484    1404    1403
CTETRA      1185       1      35    2393    2589    2590     334    1660+
+            535     327    1659    2595
CTETRA      1186       1    2391    1079    2592    2591    1370     836+
+           1663    1664     980    2597
CTETRA      1187       1    2591    2392    1079      34    1661    1371+
+            980     981     966     325
CTETRA      1188       1      35    2590    1723    1727     327    1958+
+            534     877    1962    1982
CTETRA      1189       1      34    1073    1077    1072     322    1349+
+            323     536    1348    1347
CTETRA      1190       1    2570    1729    1730      43    1991    1981+
+           1990     475     464     967
CTETRA      1191       1    1735    2195      34    2252    2021     885+
+            470     469    2155     324
CTETRA      1192       1      35    1014    2394    2393     737    1109+
+            971     334    1108    2396
CTETRA      1193       1      34    2393    2392    1072     335    2399+
+            966     536    1352    1353
CTETRA      1194       1       1    2341    2557    2558     994    1532+
+            155     963    1529    2562
CTETRA      1195       1      14    2330    1011    1037     631    1092+
+            633     626    1119    1121
CTETRA      1196       1    2244    1032    1666    1011    1115     619+
+            705    1095    1114     569
CTETRA      1197       1      22    2366    2367    2503     670    2379+
+            337     219     671     338
CTETRA      1198       1    2480    1596    1595    2280     843    1604+
+            417    1554    1626    1625
CTETRA      1199       1    2579    2351    2352    2363    1648    2354+
+           1651     940    1185    1184
CTETRA      1200       1       1    1677    2557    1695      49    1810+
+            155      51    1866    1858
CTETRA      1201       1    2556       4      16    2339     932     148+
+            998    1533     501     502
CTETRA      1202       1       1    2340    2341    1035     154    2344+
+            994     369    1143    1136
CTETRA      1203       1      16       4    2556    1690     148     932+
+            998     149     151    1859
CTETRA      1204       1      23    2367    2368    1039     336    2378+
+            215     348    1138    1133
CTETRA      1205       1    2320    1714      44    2327    1888     498+
+            952    1000     727     728
CTETRA      1206       1       9    2627      21    2509     254     253+
+            190     193     527     194
CTETRA      1207       1      16    1046    1045    2338     146    1204+
+            752     811    1203    1205
CTETRA      1208       1    2568      25      41    2405     281     423+
+            414    1543     426     425
CTETRA      1209       1    2364    2630      10    2363     733     881+
+            110    2384     287     117
CTETRA      1210       1    1695       4    2556    2557      67     932+
+           1857    1858     157    2563
CTETRA      1211       1    2293    2528    1590    1589    1567     990+
+           1643    1618     823    1603
CTETRA      1212       1    1594    1589      10    2630    1599     674+
+            675      94     840     881
CTETRA      1213       1    2364    2501      10    2630     588     769+
+            110     733    2523     881
CTETRA      1214       1      13    1750    1751    1752     128    2092+
+            607     606    2089    2091
CTETRA      1215       1      48    1070    1069    1068     681    1319+
+            682     965    1318    1316
CTETRA      1216       1    2528      10    2434    2433     976     111+
+           1504    1507     855    2444
CTETRA      1217       1    1044    1674    2579    2351     959    1784+
+            933    1189     979    1648
CTETRA      1218       1      36      38      39    2614     411     379+
+            389     392     378     376
CTETRA      1219       1    2629    2465    1594    2478    2477     892+
+             97    1472    1470     799
CTETRA      1220       1      45    2351    1043    2350     550    1191+
+            549     565    2355    1197
CTETRA      1221       1    1732    1730    1729    1076    1977    1981+
+           1980     419     420     465
CTETRA      1222       1      33    2370      20    2369     928     305+
+            310     311    2390     307
CTETRA      1223       1      40    1018    1087    2404     660    1400+
+            485     428    1375    1401
CTETRA      1224       1      34    1670    2591    1671     850    2028+
+            981     329    1965    2016
CTETRA      1225       1    1598    2426    2425    2508     847    2452+
+            849     720     922     927
CTETRA      1226       1    1062      15      12    1061     598     134+
+            138    1276     962     137
CTETRA      1227       1    2353      32    2581    2580     358     978+
+           1652    1653     357    2586
CTETRA      1228       1      40    1708    1088    1086     661     696+
+            488     654     699    1411
CTETRA      1229       1    2533    1592      42    2534     989     895+
+            762    2549     726     637
CTETRA      1230       1      30    2363    2352    1022     288    1184+
+            650     352    1166    1186
CTETRA      1231       1    1592      42    2427    2426     895     638+
+            926     897     731    2451
CTETRA      1232       1      45    1043    1050    1053     549    1217+
+            567     905    1238    1239
CTETRA      1233       1      30    1023    2363    1022     350    1164+
+            288     352    1167    1166
CTETRA      1234       1      39    1059    2614    1058     390    1258+
+            376     394    1259    1256
CTETRA      1235       1    2630      10    2363    1589     881     117+
+            287     840     674     839
CTETRA      1236       1      38    2577    2615    1669     404    2582+
+            409     403    1770    2065
CTETRA      1237       1      45    2578    2577    1676     566    2583+
+            734     558    1776    1769
CTETRA      1238       1    2403    2567      19    2404    1544     165+
+            943    2411    1545     695
CTETRA      1239       1    2291    1592    2534    2290    1639     726+
+           1579    2295    1638    1575
CTETRA      1240       1    1066    1739    1736    1738     520    2054+
+            806     518    2055    2045
CTETRA      1241       1       8    2510    2511    2455     200    2513+
+            105     986    1476    1473
CTETRA      1242       1    1735    1079      29    1733     471     838+
+            974    2017     996     973
CTETRA      1243       1    2236    2211    1064    2235    2187     807+
+           1292    2266    2190    1293
CTETRA      1244       1      29    2391    2592    2616     837    1663+
+            282     284    2400    1665
CTETRA      1245       1    1701    1066    1704    1065     809     515+
+           2012     445    1302     446
CTETRA      1246       1    1066    1741    1739    1019     805    2051+
+            520    1307     802     521
CTETRA      1247       1      29    2391    1019    1079     837    1369+
+            273     838    1370    1367
CTETRA      1248       1    1741    1740      29    1733    2049     969+
+            951    2048    2050     973
CTETRA      1249       1      29    1739    1742    1740     266    2058+
+            997     969    2052    2059
CTETRA      1250       1    1742    1739      29    1699    2058     266+
+            997    2061    2060     267
CTETRA      1251       1    2253    1733    1741    1019     800    2048+
+            771    1332     992     802
CTETRA      1252       1      14    1691    1667    1693     623    1853+
+            630     993    1847    1848
CTETRA      1253       1    2483    2460    2461    1597    1460    2472+
+           1463     956     444     723
CTETRA      1254       1      29    1699    2617    1742     267    2005+
+            283     997    2061    2062
CTETRA      1255       1      21      27    2627    1066     256     526+
+            253     517     516    1301
CTETRA      1256       1    2592    1079      29    1735     836     838+
+            282    2023     471     974
CTETRA      1257       1    1069      48      47      13     682     691+
+            702     340     680     604
CTETRA      1258       1      24    2416    2600    2417     241    2140+
+            237     242    2423    2141
CTETRA      1259       1    1071    1701    1065    1066     810     445+
+           1326    1327     809    1302
CTETRA      1260       1      13    1750    1759    1751     128    2120+
+            612     607    2092    2121
CTETRA      1261       1    1026    1025      11    1063    1178     112+
+            547    1287    1285     113
CTETRA      1262       1      12      13    1064    1757     121     126+
+            954     122     120     127
CTETRA      1263       1    2602    2361    1747      11     755     528+
+           2076     754     546     131
CTETRA      1264       1    1715    2202    1716      46    1900    1895+
+           1901     573     788     908
CTETRA      1265       1      17    1039    2623    2331     347    1129+
+            162     776    1128    2337
CTETRA      1266       1    2427      42    2428    2371     638     636+
+           2450    1441     767    1442
CTETRA      1267       1      28      23    1037    1038     262     627+
+            629     624     511    1131
CTETRA      1268       1    2339       4    1028    1031     501     152+
+           1157    1155     907    1156
CTETRA      1269       1      40    2404    2567    2568     428    1545+
+            500     412    1542    2574
CTETRA      1270       1      18    2403    1080    2402     944    1406+
+            304     468    2412    1377
CTETRA      1271       1      19    1088    1081    1087     487    1410+
+            173     484    1409    1405
CTETRA      1272       1    2200    2247    2246    1720    2165    2277+
+           2168    1919     778     817
CTETRA      1273       1      40    1710    1722    2568     489    1939+
+            415     412    1936    1937
CTETRA      1274       1      18      19    1080    2403     164     171+
+            304     944     943    1406
CTETRA      1275       1       8    2310    2455    1594     987     988+
+            986      95    1619     982
CTETRA      1276       1      11    1746    2603    1759     863    2072+
+            759     613    2124    2125
CTETRA      1277       1    2510    2602    2361    1747    1947     755+
+            757    2075    2076     528
CTETRA      1278       1    1593    2628       9    2538     710     184+
+            189     709    2554     183
CTETRA      1279       1      13    1759    2603    1751     612    2125+
+            609     607    2121    2126
CTETRA      1280       1    2203    1666    1032    1692    1841     619+
+            784    1839    1842     783
CTETRA      1281       1      35    1727    1728    1671     877    1963+
+            331     330    1960    1964
CTETRA      1282       1      34    1079    1072    2392     325    1372+
+            536     966    1371    1353
CTETRA      1283       1      34    1078    1728    1077     317     321+
+            320     323    1360     332
CTETRA      1284       1      34    1670    1735    2591     850    2027+
+            470     981    2028    2025
CTETRA      1285       1    2591    1079    2592    1735     980     836+
+           2597    2025     471    2023
CTETRA      1286       1      39    1743    1060    2237     929     935+
+            393     400     818    1263
CTETRA      1287       1      46    1715    2318    1717     573    1904+
+            576     582    1903    1899
CTETRA      1288       1    2291    2533    2534    1592    1577    2549+
+           1579    1639     989     726
CTETRA      1289       1      22    2531    1590    1591     899     819+
+            345     616     724    1607
CTETRA      1290       1    2340       4    2339    1031     156     501+
+           2345    1145     907    1155
CTETRA      1291       1      14    2316    2330    2331     125    1009+
+            631     635    1008    2336
CTETRA      1292       1    2533    1591    1592    2291     438    1611+
+            989    1577    1640    1639
CTETRA      1293       1    1013      38    2349    2614     373     398+
+           1235    1249     378    2357
CTETRA      1294       1      38    2615    2577    2349     409    2582+
+            404     398    1645    1644
CTETRA      1295       1    2404      41      40    1018     427     413+
+            428    1375     659     660
CTETRA      1296       1      37    1053    1054    1052     906    1246+
+            563     958    1234    1247
CTETRA      1297       1      37    2238    2209    1012     937    2183+
+            936     371    1230     874
CTETRA      1298       1    1045    2206    1046      16     750     744+
+           1204     752     743     146
CTETRA      1299       1      31    1059      39    1060     880     390+
+            960     879    1270     393
CTETRA      1300       1    1593    1592    2426    1598    1615     897+
+            846    1614    1613     847
CTETRA      1301       1      38    2577      37    2349     404     405+
+            375     398    1644     399
CTETRA      1302       1      36    2353    1059    1057     362    1253+
+            391     361    1250    1254
CTETRA      1303       1    2350    2577      37      45    1647     405+
+            551     565     734     562
CTETRA      1304       1      39    1060    1058    1012     393    1269+
+            394     395    1264    1257
CTETRA      1305       1    2204    1694    1692    1029    1862    1867+
+           1840     869      53      56
CTETRA      1306       1       1    1677    2558    2557      49    1808+
+            963     155    1810    2562
CTETRA      1307       1       1       3    1035    2366     366     370+
+            369     953     923    1135
CTETRA      1308       1       1    1031    2340    1035     363    1145+
+            154     369    1144    1143
CTETRA      1309       1    2374    2588    2394    2395     522    1658+
+           1110    1111    1655    2397
CTETRA      1310       1    2338    1047    2620    2621    1212     740+
+           1537    2347    1210    2304
CTETRA      1311       1       1    2341    2366    1035     994    1134+
+            953     369    1136    1135
CTETRA      1312       1    1048    1672    1685    1687      81    1832+
+            878     448    1838    1836
CTETRA      1313       1    1032    1033    1029    1692    1117    1153+
+           1151     783      63      56
CTETRA      1314       1      16    1028    2338    2339     503    1202+
+            811     502    1157    2346
CTETRA      1315       1    2426    1592    2535    2427     897     712+
+           1521    2451     926    1518
CTETRA      1316       1    1089    2246    1720    1015    1415     817+
+            795    1418    1099     865
CTETRA      1317       1      46    1016    2330    2329     786    1090+
+            578     580    1093    2335
CTETRA      1318       1    1595    2464    2465      10     159    2476+
+            160     676     893     882
CTETRA      1319       1    2429    2532    1591    2533    1515     725+
+            434    1514    2548     438
CTETRA      1320       1      14    2316    1693    2317     125    1843+
+            993     632    2325    1844
$*
$* PROPERTY CARDS
$*
$*  NX Property: PSOLID1
PSOLID         1       1       0                           SMECH
$*
$* MATERIAL CARDS
$*
$*  NX Material: Aluminum_6061
MAT1           16.8980+7        0.3300002.7110-62.2161-5
MATT1          1       1               2               3
TABLEM1        1                                                        +
+        20.00006.8980+7 21.11006.8980+7 23.89006.8980+7 37.78006.8290+7+
+        51.67006.8290+7 65.56006.7600+7 79.44006.6910+7 93.33006.6221+7+
+       107.22006.5531+7121.11006.4841+7135.00006.4151+7148.89006.3461+7+
+       162.78006.2772+7176.67006.1392+7190.56006.0702+7204.44005.9323+7+
+       218.33005.8633+7232.22005.7253+7246.11005.5874+7260.00005.4494+7+
+       273.89005.3114+7287.78005.1735+7301.67005.0355+7315.56004.8976+7+
+       329.44004.7596+7343.33004.6216+7357.22004.4147+7371.11004.2767+7+
+       385.00004.1388+7398.89003.9318+7412.78003.7939+7426.67003.5869+7+
+           ENDT
TABLEM1        2                                                        +
+        20.00000.330000 21.11000.330000    ENDT
TABLEM1        3                                                        +
+        20.00002.2380-5 93.33002.3184-5107.22002.3346-5121.11002.3508-5+
+       135.00002.3670-5148.89002.3832-5162.78002.3994-5176.67002.4138-5+
+       190.56002.4300-5204.44002.4444-5218.33002.4588-5232.22002.4732-5+
+       246.11002.4876-5260.00002.5002-5273.89002.5146-5287.78002.5272-5+
+       301.67002.5398-5315.56002.5524-5    ENDT
$*
$* LOAD AND CONSTRAINT CARDS
$*
$*  NX Load and Constraint: Fixed(1)
SPC            1    1589  123456  0.0000
SPC            1    1590  123456  0.0000
SPC            1    1591  123456  0.0000
SPC            1    1592  123456  0.0000
SPC            1    1593  123456  0.0000
SPC            1    1594  123456  0.0000
SPC            1    1595  123456  0.0000
SPC            1    1596  123456  0.0000
SPC            1    1597  123456  0.0000
SPC            1    1598  123456  0.0000
SPC            1    1599  123456  0.0000
SPC            1    1600  123456  0.0000
SPC            1    1601  123456  0.0000
SPC            1    1602  123456  0.0000
SPC            1    1603  123456  0.0000
SPC            1    1604  123456  0.0000
SPC            1    1605  123456  0.0000
SPC            1    1606  123456  0.0000
SPC            1    1607  123456  0.0000
SPC            1    1608  123456  0.0000
SPC            1    1609  123456  0.0000
SPC            1    1610  123456  0.0000
SPC            1    1611  123456  0.0000
SPC            1    1612  123456  0.0000
SPC            1    1613  123456  0.0000
SPC            1    1614  123456  0.0000
SPC            1    1615  123456  0.0000
SPC            1    1616  123456  0.0000
SPC            1    1617  123456  0.0000
SPC            1    1618  123456  0.0000
SPC            1    1619  123456  0.0000
SPC            1    1620  123456  0.0000
SPC            1    1621  123456  0.0000
SPC            1    1622  123456  0.0000
SPC            1    1623  123456  0.0000
SPC            1    1624  123456  0.0000
SPC            1    1625  123456  0.0000
SPC            1    1626  123456  0.0000
SPC            1    1627  123456  0.0000
SPC            1    1628  123456  0.0000
SPC            1    1629  123456  0.0000
SPC            1    1630  123456  0.0000
SPC            1    1631  123456  0.0000
SPC            1    1632  123456  0.0000
SPC            1    1633  123456  0.0000
SPC            1    1634  123456  0.0000
SPC            1    1635  123456  0.0000
SPC            1    1636  123456  0.0000
SPC            1    1637  123456  0.0000
SPC            1    1638  123456  0.0000
SPC            1    1639  123456  0.0000
SPC            1    1640  123456  0.0000
SPC            1    1641  123456  0.0000
SPC            1    1642  123456  0.0000
SPC            1    1643  123456  0.0000
SPC            1    2278  123456  0.0000
SPC            1    2279  123456  0.0000
SPC            1    2280  123456  0.0000
SPC            1    2281  123456  0.0000
SPC            1    2282  123456  0.0000
SPC            1    2283  123456  0.0000
SPC            1    2284  123456  0.0000
SPC            1    2285  123456  0.0000
SPC            1    2286  123456  0.0000
SPC            1    2287  123456  0.0000
SPC            1    2288  123456  0.0000
SPC            1    2289  123456  0.0000
SPC            1    2290  123456  0.0000
SPC            1    2291  123456  0.0000
SPC            1    2292  123456  0.0000
SPC            1    2293  123456  0.0000
SPC            1    2294  123456  0.0000
SPC            1    2295  123456  0.0000
SPC            1    2296  123456  0.0000
SPC            1    2297  123456  0.0000
SPC            1    2298  123456  0.0000
SPC            1    2299  123456  0.0000
SPC            1    2309  123456  0.0000
SPC            1    2310  123456  0.0000
SPC            1    2311  123456  0.0000
SPC            1    2312  123456  0.0000
SPC            1    2313  123456  0.0000
SPC            1    2612  123456  0.0000
SPC            1    2613  123456  0.0000
$*  NX Load and Constraint: Torque(1)
FORCE          2    2149       025973.84-0.281730.959494  0.0000
FORCE          2    2150       025973.93-0.142320.989821  0.0000
FORCE          2    2151       025973.86-0.540650.841250  0.0000
FORCE          2    2152       025974.57-0.415420.909631  0.0000
FORCE          2    2153       025974.72-0.755750.654858  0.0000
FORCE          2    2154       025973.94-0.654860.755750  0.0000
FORCE          2    2155       025973.88-0.909630.415414  0.0000
FORCE          2    2156       025973.94-0.841260.540633  0.0000
FORCE          2    2157       025972.72-0.989820.142304  0.0000
FORCE          2    2158       025974.52-0.959490.281727  0.0000
FORCE          2    2159       025973.19-0.98982-0.14230  0.0000
FORCE          2    2160       025971.42-1.000009.4538-6  0.0000
FORCE          2    2161       025973.99-0.90964-0.41539  0.0000
FORCE          2    2162       025973.96-0.95950-0.28172  0.0000
FORCE          2    2163       025973.88-0.75576-0.65485  0.0000
FORCE          2    2164       025974.42-0.84126-0.54063  0.0000
FORCE          2    2165       025974.43-0.54065-0.84125  0.0000
FORCE          2    2166       025974.09-0.65488-0.75574  0.0000
FORCE          2    2167       025974.18-0.28175-0.95949  0.0000
FORCE          2    2168       025973.96-0.41543-0.90963  0.0000
FORCE          2    2169       025973.89-1.416-5-1.00000  0.0000
FORCE          2    2170       025974.26-0.14233-0.98982  0.0000
FORCE          2    2171       025974.180.281723-0.95950  0.0000
FORCE          2    2172       025974.260.142299-0.98982  0.0000
FORCE          2    2173       025974.430.540630-0.84126  0.0000
FORCE          2    2174       025973.960.415403-0.90964  0.0000
FORCE          2    2175       025973.880.755741-0.65487  0.0000
FORCE          2    2176       025974.100.654855-0.75575  0.0000
FORCE          2    2177       025973.990.909630-0.41542  0.0000
FORCE          2    2178       025974.420.841248-0.54065  0.0000
FORCE          2    2179       025974.610.989820-0.14232  0.0000
FORCE          2    2180       025973.960.959490-0.28174  0.0000
FORCE          2    2181       025973.870.9898230.142304  0.0000
FORCE          2    2182       025973.991.000000-3.281-6  0.0000
FORCE          2    2183       025973.880.9096320.415414  0.0000
FORCE          2    2184       025974.520.9594950.281727  0.0000
FORCE          2    2185       025974.720.7557520.654858  0.0000
FORCE          2    2186       025973.940.8412580.540633  0.0000
FORCE          2    2187       025973.860.5406470.841250  0.0000
FORCE          2    2188       025973.940.6548600.755750  0.0000
FORCE          2    2189       025973.840.2817290.959494  0.0000
FORCE          2    2190       025974.570.4154170.909631  0.0000
FORCE          2    2191       025973.930.1423200.989821  0.0000
FORCE          2    2213       012987.350.8412560.540637  0.0000
FORCE          2    2214       012986.641.000000-7.083-6  0.0000
FORCE          2    2215       012987.290.9594950.281727  0.0000
FORCE          2    2216       012987.100.415404-0.90964  0.0000
FORCE          2    2217       012986.770.654852-0.75576  0.0000
FORCE          2    2218       012987.260.959491-0.28174  0.0000
FORCE          2    2219       012987.300.841248-0.54065  0.0000
FORCE          2    2220       012987.310.142301-0.98982  0.0000
FORCE          2    2221       012986.94-0.14233-0.98982  0.0000
FORCE          2    2222       012986.86-0.41543-0.90963  0.0000
FORCE          2    2223       012987.12-0.84126-0.54063  0.0000
FORCE          2    2224       012987.33-0.65487-0.75574  0.0000
FORCE          2    2225       012985.93-1.000009.4538-6  0.0000
FORCE          2    2226       012986.69-0.95950-0.28171  0.0000
FORCE          2    2227       012986.59-0.841260.540637  0.0000
FORCE          2    2228       012987.23-0.959490.281727  0.0000
FORCE          2    2229       012987.28-0.415420.909631  0.0000
FORCE          2    2230       012987.37-0.654860.755747  0.0000
FORCE          2    2231       012986.56-0.142320.989821  0.0000
FORCE          2    2232       012987.380.1423150.989821  0.0000
FORCE          2    2233       012987.290.4154170.909631  0.0000
FORCE          2    2234       012986.570.6548630.755747  0.0000
FORCE          2    2256       012986.940.142301-0.98982  0.0000
FORCE          2    2257       012987.31-0.14233-0.98982  0.0000
FORCE          2    2258       012986.870.415404-0.90964  0.0000
FORCE          2    2259       012987.330.654852-0.75576  0.0000
FORCE          2    2260       012987.120.841248-0.54065  0.0000
FORCE          2    2261       012986.700.959491-0.28174  0.0000
FORCE          2    2262       012986.590.8412560.540637  0.0000
FORCE          2    2263       012987.351.000000-7.083-6  0.0000
FORCE          2    2264       012987.230.9594950.281727  0.0000
FORCE          2    2265       012987.370.6548630.755747  0.0000
FORCE          2    2266       012987.280.4154170.909631  0.0000
FORCE          2    2267       012986.560.1423150.989821  0.0000
FORCE          2    2268       012987.38-0.142320.989821  0.0000
FORCE          2    2269       012987.29-0.415420.909631  0.0000
FORCE          2    2270       012986.57-0.654860.755747  0.0000
FORCE          2    2271       012985.49-1.000009.4538-6  0.0000
FORCE          2    2272       012987.26-0.95950-0.28171  0.0000
FORCE          2    2273       012987.35-0.841260.540637  0.0000
FORCE          2    2274       012987.29-0.959490.281727  0.0000
FORCE          2    2275       012987.30-0.84126-0.54063  0.0000
FORCE          2    2276       012986.76-0.65487-0.75574  0.0000
FORCE          2    2277       012987.10-0.41543-0.90963  0.0000
FORCE          2    2300       025974.75  0.00001.000000  0.0000
ENDDATA ce7a9baa
